** Calculix structure data file generated from OpenVSP 3.43.0
** PodGeom_Struct0
** Num_Nodes:       13538
** Num_Els:         4512
** Num_Tris:        0
** Num_Quads:       4512
** Num_Beams:       0
** Node_Offset:     0
** Element_Offset:  0

** Skin PodGeom_Struct0
*NODE, NSET=NSkin_PodGeom_Struct0
1,0.000000,0.000000,0.000000
2,0.019311,0.000000,0.023578
3,0.025270,0.021575,0.021575
4,0.019311,0.023578,0.000000
5,0.009656,0.000000,0.011789
6,0.022291,0.010788,0.022576
7,0.022291,0.022576,0.010788
8,0.009656,0.011789,0.000000
9,0.046533,0.000000,0.054134
10,0.038589,0.032175,0.032175
11,0.042561,0.016088,0.043154
12,0.031929,0.026875,0.026875
13,0.032922,0.000000,0.038856
14,0.046533,0.054134,0.000000
15,0.032922,0.038856,0.000000
16,0.042561,0.043154,0.016088
17,4.735049,0.000000,0.666562
18,4.867521,0.113032,0.657082
19,4.823756,0.192348,0.638407
20,4.735627,0.176369,0.642940
21,4.801285,0.056516,0.661822
22,4.845639,0.152690,0.647744
23,4.779692,0.184359,0.640673
24,4.735338,0.088185,0.654751
25,5.000000,0.222791,0.628470
26,4.868122,0.282814,0.603764
27,4.934061,0.252803,0.616117
28,4.845939,0.237581,0.621085
29,4.933760,0.167911,0.642776
30,4.736246,0.340115,0.573261
31,4.735936,0.258242,0.608100
32,4.802184,0.311465,0.588512
33,4.470706,0.666173,0.000000
34,4.500217,0.656351,0.114863
35,4.578493,0.662028,0.076443
36,4.602973,0.666411,0.000000
37,4.485461,0.661262,0.057431
38,4.539355,0.659190,0.095653
39,4.590733,0.664220,0.038222
40,4.536839,0.666292,0.000000
41,4.529768,0.626816,0.226293
42,4.632395,0.656571,0.114866
43,4.581082,0.641694,0.170580
44,4.605444,0.659300,0.095655
45,4.514992,0.641584,0.170578
46,4.735049,0.666562,0.000000
47,4.669011,0.666487,0.000000
48,4.683722,0.661567,0.057433
49,5.000000,0.628470,0.222791
50,4.867521,0.657082,0.113032
51,4.816836,0.640012,0.186923
52,4.857740,0.607333,0.275077
53,4.933760,0.642776,0.167911
54,4.842178,0.648547,0.149977
55,4.837288,0.623672,0.231000
56,4.928870,0.617901,0.248934
57,4.725246,0.645131,0.168133
58,4.730147,0.655846,0.084067
59,4.771041,0.642571,0.177528
60,4.801285,0.661822,0.056516
61,4.715482,0.581768,0.325354
62,4.786611,0.594550,0.300216
63,4.720364,0.613449,0.246744
64,4.788010,0.547565,0.380072
65,4.858672,0.579192,0.330096
66,4.751746,0.564667,0.352713
67,4.823341,0.563379,0.355084
68,4.858206,0.593262,0.302586
69,4.860542,0.508236,0.431223
70,4.930269,0.577845,0.332484
71,4.895405,0.543040,0.381854
72,4.894470,0.578519,0.331290
73,4.824276,0.527900,0.405648
74,4.965134,0.603157,0.277638
75,5.000000,0.312796,0.588773
76,4.912081,0.322238,0.583633
77,5.000000,0.267793,0.608622
78,4.956040,0.317517,0.586203
79,4.890101,0.302526,0.593698
80,5.000000,0.396449,0.535881
81,4.868123,0.368772,0.555306
82,4.934061,0.382610,0.545593
83,4.890102,0.345505,0.569470
84,5.000000,0.354622,0.562327
85,4.802184,0.354443,0.564283
86,4.641393,0.285581,0.602257
87,4.672596,0.194350,0.637672
88,4.688820,0.312848,0.587759
89,4.656995,0.239965,0.619964
90,4.704111,0.185360,0.640306
91,4.546548,0.228559,0.626024
92,4.640785,0.116053,0.656375
93,4.593667,0.172306,0.641199
94,4.656691,0.155202,0.647023
95,4.593971,0.257070,0.614141
96,4.687917,0.058026,0.661468
97,5.000000,0.666667,0.000000
98,4.867045,0.666643,0.000000
99,4.911681,0.662451,0.075226
100,5.000000,0.656974,0.113803
101,4.933522,0.666655,0.000000
102,4.889363,0.664547,0.037613
103,4.955840,0.659712,0.094514
104,5.000000,0.661820,0.056901
105,4.889601,0.659766,0.094129
106,4.801047,0.666602,0.000000
107,5.000000,0.642722,0.168297
108,4.490138,0.474102,0.467861
109,4.613184,0.410490,0.524876
110,4.647270,0.476179,0.466114
111,4.602802,0.532741,0.400225
112,4.551661,0.442296,0.496369
113,4.630227,0.443334,0.495495
114,4.625036,0.504460,0.433170
115,4.546470,0.503422,0.434043
116,4.725844,0.477216,0.465173
117,4.731045,0.408665,0.519217
118,4.686557,0.476697,0.465644
119,4.674715,0.375302,0.549068
120,4.659142,0.557255,0.362789
121,4.720663,0.529492,0.395263
122,4.867045,0.000000,0.666643
123,4.911681,0.075226,0.662451
124,4.801047,0.000000,0.666602
125,4.889363,0.037613,0.664547
126,4.889601,0.094129,0.659766
127,5.000000,0.000000,0.666667
128,5.000000,0.113803,0.656974
129,5.000000,0.056901,0.661820
130,4.955840,0.094514,0.659712
131,4.933522,0.000000,0.666655
132,5.000000,0.168297,0.642722
133,3.943557,0.000000,0.663992
134,3.840985,0.139487,0.648543
135,3.787158,0.092744,0.656379
136,3.811194,0.000000,0.663027
137,3.892271,0.069744,0.656268
138,3.814071,0.116116,0.652461
139,3.799176,0.046372,0.659703
140,3.877375,0.000000,0.663510
141,3.738645,0.272688,0.603768
142,3.708985,0.139475,0.647390
143,3.723815,0.206081,0.625579
144,3.748071,0.116110,0.651885
145,3.789815,0.206087,0.626156
146,3.679606,0.000000,0.661849
147,3.745400,0.000000,0.662438
148,3.694295,0.069738,0.654620
149,3.518236,0.455433,0.477595
150,3.364223,0.444879,0.484588
151,3.391990,0.385316,0.533750
152,3.482931,0.359052,0.553295
153,3.441230,0.450156,0.481092
154,3.378107,0.415097,0.509169
155,3.437461,0.372184,0.543522
156,3.500584,0.407242,0.515445
157,3.210221,0.433856,0.491071
158,3.328924,0.346967,0.558374
159,3.269573,0.390412,0.524722
160,3.360457,0.366142,0.546062
161,3.287222,0.439368,0.487830
162,3.447921,0.250256,0.609913
163,3.465426,0.304654,0.581604
164,3.388422,0.298612,0.584144
165,2.377456,0.630012,0.000000
166,2.387516,0.620805,0.110503
167,2.469711,0.629847,0.073566
168,2.505246,0.635540,0.000000
169,2.382486,0.625409,0.055252
170,2.428614,0.625326,0.092034
171,2.487479,0.632694,0.036783
172,2.441351,0.632776,0.000000
173,2.398469,0.592385,0.217604
174,2.515999,0.626380,0.110554
175,2.457234,0.609382,0.164079
176,2.492855,0.628113,0.092060
177,2.392992,0.606595,0.164053
178,2.634339,0.640415,0.000000
179,2.569792,0.637978,0.000000
180,2.575169,0.633397,0.055277
181,2.698466,0.246670,0.593474
182,2.549523,0.234419,0.592722
183,2.577417,0.158743,0.618419
184,2.665978,0.125768,0.629164
185,2.623994,0.240545,0.593098
186,2.563470,0.196581,0.605571
187,2.621698,0.142256,0.623792
188,2.682222,0.186219,0.611319
189,2.400622,0.221762,0.590943
190,2.517060,0.112737,0.626036
191,2.458841,0.167249,0.608489
192,2.547239,0.135740,0.622227
193,2.475072,0.228090,0.591833
194,2.634339,0.000000,0.640415
195,2.650158,0.062884,0.634789
196,2.575700,0.056368,0.633225
197,3.154824,0.000000,0.654343
198,3.146730,0.112522,0.644525
199,3.062412,0.074905,0.648171
200,3.024542,0.000000,0.651588
201,3.150777,0.056261,0.649434
202,3.104571,0.093714,0.646348
203,3.043477,0.037453,0.649879
204,3.089683,0.000000,0.652965
205,3.139021,0.221698,0.615438
206,3.016267,0.112556,0.641691
207,3.077644,0.167127,0.628565
208,3.039339,0.093731,0.644931
209,3.142875,0.167110,0.629982
210,2.893970,0.000000,0.648376
211,2.959256,0.000000,0.649982
212,2.955118,0.056278,0.645034
213,4.074765,0.000000,0.664760
214,4.052228,0.086685,0.659028
215,3.974958,0.130319,0.651389
216,4.009161,0.000000,0.664376
217,4.063496,0.043343,0.661894
218,4.013593,0.108502,0.655208
219,3.959257,0.065160,0.657691
220,4.206794,0.000000,0.665367
221,4.106593,0.130327,0.652130
222,4.156693,0.065164,0.658749
223,4.079410,0.108506,0.655579
224,4.140780,0.000000,0.665064
225,4.006519,0.255574,0.613370
226,3.990738,0.192946,0.632379
227,4.056556,0.192950,0.632750
228,3.896152,0.179465,0.639079
229,3.935555,0.154892,0.645234
230,3.868569,0.159476,0.643811
231,3.872581,0.264201,0.608732
232,3.939550,0.259887,0.611051
233,3.884366,0.221833,0.623905
234,3.805613,0.268444,0.606250
235,4.067225,0.515111,0.419969
236,4.036761,0.397275,0.532635
237,4.082560,0.370072,0.552220
238,4.120633,0.423009,0.512962
239,4.051993,0.456193,0.476302
240,4.059660,0.383673,0.542427
241,4.101596,0.396540,0.532591
242,4.093929,0.469060,0.466465
243,4.090337,0.285435,0.600529
244,4.048428,0.270504,0.606949
245,4.086448,0.327754,0.576374
246,4.021640,0.326424,0.573002
247,4.174163,0.314583,0.586188
248,4.147398,0.368796,0.549575
249,4.132250,0.300009,0.593358
250,4.190395,0.162203,0.645352
251,4.129088,0.194471,0.636095
252,4.198594,0.081101,0.655360
253,4.159741,0.178337,0.640724
254,4.117840,0.162399,0.644113
255,4.109712,0.239953,0.618312
256,4.182279,0.238393,0.615770
257,2.083084,0.574214,0.217992
258,2.240739,0.583951,0.218041
259,2.200741,0.603413,0.147404
260,2.102031,0.605300,0.110807
261,2.161912,0.579083,0.218017
262,2.220740,0.593682,0.182723
263,2.151386,0.604356,0.129106
264,2.092557,0.589757,0.164400
265,2.259814,0.614441,0.110593
266,2.329142,0.603413,0.164098
267,2.230277,0.608927,0.128998
268,2.319604,0.588168,0.217823
269,2.122221,0.616499,0.000000
270,2.112126,0.610899,0.055404
271,2.191018,0.615470,0.055296
272,2.377456,0.000000,0.630012
273,2.388575,0.112686,0.620464
274,2.299629,0.075036,0.621806
275,2.249187,0.000000,0.623667
276,2.383015,0.056343,0.625238
277,2.344102,0.093861,0.621135
278,2.274408,0.037518,0.622737
279,2.313322,0.000000,0.626840
280,2.260871,0.112778,0.614102
281,2.330746,0.167270,0.602522
282,2.280250,0.093907,0.617954
283,2.394599,0.167224,0.605703
284,2.122221,0.000000,0.616499
285,2.185704,0.000000,0.620083
286,2.191546,0.056389,0.615300
287,1.870650,0.599195,0.000000
288,1.746106,0.588815,0.000000
289,1.707000,0.581265,0.068761
290,1.748940,0.580013,0.103355
291,1.808378,0.594005,0.000000
292,1.726553,0.585040,0.034381
293,1.727970,0.580639,0.086058
294,1.809795,0.589604,0.051677
295,1.623792,0.577225,0.000000
296,1.625475,0.568175,0.103236
297,1.624633,0.572700,0.051618
298,1.666237,0.574720,0.085998
299,1.684949,0.583020,0.000000
300,1.629019,0.540954,0.203186
301,1.688980,0.560483,0.153270
302,1.627247,0.554564,0.153211
303,1.870650,0.000000,0.599195
304,1.746189,0.102786,0.579866
305,1.705168,0.068382,0.581138
306,1.746106,0.000000,0.588815
307,1.808419,0.051393,0.589530
308,1.725678,0.085584,0.580502
309,1.725637,0.034191,0.584977
310,1.808378,0.000000,0.594005
311,1.623510,0.202088,0.540773
312,1.622727,0.102662,0.567997
313,1.623118,0.152375,0.554385
314,1.663947,0.085522,0.574568
315,1.684849,0.152437,0.560319
316,1.623792,0.000000,0.577225
317,1.684949,0.000000,0.583020
318,1.623259,0.051331,0.572611
319,0.353725,0.000000,0.278711
320,0.320363,0.096516,0.242620
321,0.283521,0.064119,0.231551
322,0.278323,0.000000,0.237151
323,0.337044,0.048258,0.260665
324,0.301942,0.080318,0.237086
325,0.280922,0.032060,0.234351
326,0.316024,0.000000,0.257931
327,0.304890,0.180897,0.176085
328,0.252571,0.096343,0.199431
329,0.278731,0.138620,0.187758
330,0.268046,0.080231,0.215491
331,0.312627,0.138707,0.209352
332,0.217179,0.000000,0.198440
333,0.247751,0.000000,0.217796
334,0.234875,0.048172,0.198935
335,0.353725,0.278711,0.000000
336,0.278323,0.237151,0.000000
337,0.284019,0.232382,0.062178
338,0.320944,0.244125,0.093539
339,0.316024,0.257931,0.000000
340,0.281171,0.234767,0.031089
341,0.302482,0.238253,0.077859
342,0.337335,0.261418,0.046770
343,0.217179,0.198440,0.000000
344,0.253091,0.201187,0.093404
345,0.235135,0.199813,0.046702
346,0.268555,0.216784,0.077791
347,0.247751,0.217796,0.000000
348,0.312917,0.212511,0.134812
349,0.278991,0.191042,0.134744
350,4.206794,0.665367,0.000000
351,4.249122,0.653189,0.128113
352,4.322979,0.660369,0.085223
353,4.339216,0.665833,0.000000
354,4.227958,0.659278,0.064056
355,4.286051,0.656779,0.106668
356,4.331098,0.663101,0.042612
357,4.273005,0.665600,0.000000
358,4.291543,0.616484,0.251435
359,4.381090,0.653618,0.128117
360,4.336317,0.635051,0.189776
361,4.352035,0.656994,0.106670
362,4.270333,0.634836,0.189774
363,4.404961,0.666003,0.000000
364,4.425898,0.659896,0.064058
365,4.278318,0.128295,0.653260
366,4.243573,0.193125,0.637009
367,4.242556,0.064147,0.659313
368,4.260946,0.160710,0.645134
369,4.216984,0.177664,0.641181
370,4.349930,0.251776,0.616543
371,4.262043,0.283584,0.602223
372,4.305986,0.267680,0.609383
373,4.252808,0.238354,0.619616
374,4.314124,0.190035,0.634902
375,4.218103,0.299084,0.594206
376,4.383638,0.474182,0.467419
377,4.372368,0.407416,0.526642
378,4.420000,0.370488,0.553451
379,4.436888,0.474142,0.467640
380,4.378003,0.440799,0.497031
381,4.396184,0.388952,0.540046
382,4.455069,0.422295,0.510656
383,4.277138,0.474207,0.466925
384,4.313490,0.370578,0.553027
385,4.295314,0.422392,0.509976
386,4.342929,0.388997,0.539834
387,4.330388,0.474194,0.467172
388,4.384965,0.311132,0.584997
389,4.331710,0.311177,0.584785
390,4.339216,0.000000,0.665833
391,4.342443,0.085342,0.660414
392,4.273005,0.000000,0.665600
393,4.340829,0.042671,0.663123
394,4.310381,0.106818,0.656837
395,4.470706,0.000000,0.666173
396,4.410286,0.128293,0.653663
397,4.440496,0.064147,0.659918
398,4.376364,0.106818,0.657038
399,4.404961,0.000000,0.666003
400,4.380108,0.190035,0.635103
401,1.382679,0.549486,0.000000
402,1.264158,0.532960,0.000000
403,1.245726,0.525656,0.069585
404,1.294585,0.527220,0.104591
405,1.323418,0.541223,0.000000
406,1.254942,0.529308,0.034793
407,1.270156,0.526438,0.087088
408,1.338632,0.538353,0.052296
409,1.149345,0.514729,0.000000
410,1.177841,0.508947,0.104485
411,1.163593,0.511838,0.052242
412,1.211783,0.517301,0.087035
413,1.206752,0.523845,0.000000
414,1.209704,0.483043,0.204853
415,1.252145,0.505132,0.154722
416,1.193773,0.495995,0.154669
417,0.677864,0.168226,0.370579
418,0.594140,0.214090,0.313582
419,0.565699,0.147046,0.339254
420,0.597302,0.086156,0.371008
421,0.636002,0.191158,0.342080
422,0.579920,0.180568,0.326418
423,0.581501,0.116601,0.355131
424,0.637583,0.127191,0.370793
425,0.515488,0.251651,0.244453
426,0.509723,0.135226,0.321416
427,0.512606,0.193439,0.282935
428,0.537711,0.141136,0.330335
429,0.554814,0.232871,0.279018
430,0.522961,0.000000,0.353795
431,0.560131,0.043078,0.362401
432,0.516342,0.067613,0.337606
433,3.679606,0.661849,0.000000
434,3.718033,0.655040,0.097747
435,3.793198,0.659718,0.065088
436,3.811194,0.663027,0.000000
437,3.698819,0.658445,0.048873
438,3.755615,0.657379,0.081417
439,3.802196,0.661372,0.032544
440,3.745400,0.662438,0.000000
441,3.756595,0.633859,0.193364
442,3.850020,0.656165,0.097753
443,3.803307,0.645012,0.145558
444,3.821609,0.657942,0.081420
445,3.737314,0.644449,0.145555
446,3.943557,0.663992,0.000000
447,3.877375,0.663510,0.000000
448,3.896789,0.660079,0.048876
449,4.034691,0.580766,0.323047
450,3.945480,0.564684,0.349304
451,3.917165,0.522365,0.409463
452,4.050958,0.547939,0.371508
453,3.990085,0.572725,0.336176
454,3.931322,0.543525,0.379384
455,3.992195,0.518738,0.414716
456,4.002271,0.628377,0.216059
457,3.884629,0.586110,0.311246
458,3.943450,0.607244,0.263653
459,3.915055,0.575397,0.330275
460,4.018481,0.604572,0.269553
461,3.767107,0.529228,0.398650
462,3.842136,0.525797,0.404057
463,3.825868,0.557669,0.354948
464,3.628341,0.369349,0.548517
465,3.674520,0.428415,0.504270
466,3.642648,0.494055,0.439658
467,3.573288,0.412391,0.513056
468,3.651431,0.398882,0.526394
469,3.658584,0.461235,0.471964
470,3.580442,0.474744,0.458627
471,3.752694,0.413825,0.517267
472,3.745670,0.343256,0.560517
473,3.713607,0.421120,0.510768
474,3.683493,0.321019,0.576143
475,3.704877,0.511642,0.419154
476,3.759901,0.471527,0.457959
477,0.926158,0.471515,0.000000
478,0.818064,0.445950,0.000000
479,0.782918,0.433806,0.051737
480,0.817299,0.438975,0.077812
481,0.872111,0.458732,0.000000
482,0.800491,0.439878,0.025869
483,0.800109,0.436390,0.064775
484,0.871729,0.455245,0.038906
485,0.715730,0.418205,0.000000
486,0.712411,0.410044,0.077489
487,0.714070,0.414125,0.038744
488,0.747664,0.421925,0.064613
489,0.766897,0.432077,0.000000
490,0.713020,0.388643,0.152487
491,0.765160,0.413809,0.115150
492,0.712716,0.399344,0.114988
493,0.115482,0.120579,0.000000
494,0.139231,0.125623,0.063142
495,0.162768,0.153585,0.042130
496,0.158703,0.156088,0.000000
497,0.127357,0.123101,0.031571
498,0.151000,0.139604,0.052636
499,0.160736,0.154836,0.021065
500,0.137092,0.138333,0.000000
501,0.174610,0.117945,0.119871
502,0.188966,0.167170,0.063343
503,0.181788,0.142557,0.091607
504,0.175867,0.160377,0.052737
505,0.156921,0.121784,0.091506
506,0.187941,0.177264,0.000000
507,0.203073,0.182805,0.031671
508,0.189236,0.062185,0.167812
509,0.162988,0.041374,0.153966
510,0.158703,0.000000,0.156088
511,0.203208,0.031093,0.183126
512,0.176112,0.051780,0.160889
513,0.160846,0.020687,0.155027
514,0.187941,0.000000,0.177264
515,0.139445,0.062003,0.126385
516,0.157028,0.089974,0.123128
517,0.151217,0.051688,0.140175
518,0.181923,0.090065,0.143841
519,0.115482,0.000000,0.120579
520,0.137092,0.000000,0.138333
521,0.127463,0.031002,0.123482
522,0.926158,0.000000,0.471515
523,0.908938,0.106003,0.455585
524,0.843501,0.070668,0.446787
525,0.818064,0.000000,0.445950
526,0.917548,0.053002,0.463550
527,0.876219,0.088335,0.451186
528,0.830782,0.035334,0.446368
529,0.872111,0.000000,0.458732
530,0.897064,0.206649,0.416575
531,0.803234,0.106263,0.429284
532,0.850149,0.156456,0.422929
533,0.823367,0.088465,0.438035
534,0.903001,0.156326,0.436080
535,0.715730,0.000000,0.418205
536,0.766897,0.000000,0.432077
537,0.759482,0.053132,0.423744
538,3.548524,0.660431,0.000000
539,3.538574,0.655139,0.082973
540,3.599460,0.649243,0.124718
541,3.614065,0.661140,0.000000
542,3.543549,0.657785,0.041486
543,3.569017,0.652191,0.103845
544,3.639533,0.655546,0.062359
545,3.416923,0.658726,0.000000
546,3.468093,0.647627,0.124713
547,3.442508,0.653176,0.062356
548,3.503334,0.651383,0.103843
549,3.482723,0.659579,0.000000
550,3.519579,0.613075,0.244929
551,3.559520,0.631159,0.184823
552,3.493836,0.630351,0.184821
553,3.563617,0.127558,0.648280
554,3.514677,0.084847,0.654607
555,3.548524,0.000000,0.660431
556,3.621611,0.063779,0.655065
557,3.539147,0.106203,0.651444
558,3.531601,0.042424,0.657519
559,3.614065,0.000000,0.661140
560,3.432249,0.127538,0.646585
561,3.440085,0.188897,0.628249
562,3.473463,0.106192,0.650596
563,3.505769,0.188907,0.629097
564,3.416923,0.000000,0.658726
565,3.482723,0.000000,0.659579
566,3.424586,0.063769,0.652656
567,3.621925,0.177633,0.637085
568,3.665455,0.158554,0.642238
569,3.592771,0.152595,0.642683
570,3.593280,0.261577,0.607084
571,3.665962,0.267132,0.605426
572,3.607602,0.219605,0.622085
573,3.520600,0.255917,0.608499
574,3.568159,0.330831,0.571869
575,3.525545,0.344941,0.562582
576,3.598250,0.350090,0.560193
577,3.580720,0.296204,0.589477
578,2.664798,0.629745,0.122603
579,2.741122,0.638837,0.081579
580,2.763671,0.644664,0.000000
581,2.649569,0.635080,0.061301
582,2.702960,0.634291,0.102091
583,2.752396,0.641751,0.040790
584,2.699005,0.642539,0.000000
585,2.696064,0.595840,0.240701
586,2.794661,0.633943,0.122630
587,2.745363,0.614892,0.181665
588,2.767891,0.636390,0.102105
589,2.680431,0.612793,0.181652
590,2.893970,0.648376,0.000000
591,2.828820,0.646520,0.000000
592,2.844315,0.641159,0.061315
593,2.763671,0.000000,0.644664
594,2.741905,0.083675,0.638593
595,2.699005,0.000000,0.642539
596,2.752788,0.041838,0.641629
597,2.703942,0.104722,0.633879
598,2.795843,0.125795,0.633361
599,2.844907,0.062897,0.640868
600,2.768874,0.104735,0.635977
601,2.828820,0.000000,0.646520
602,2.747155,0.186232,0.613418
603,1.521989,0.398311,0.402497
604,1.571395,0.307029,0.482336
605,1.618399,0.344895,0.462088
606,1.617569,0.406171,0.409092
607,1.546692,0.352670,0.442417
608,1.594897,0.325962,0.472212
609,1.617984,0.375533,0.435590
610,1.569779,0.402241,0.405795
611,1.667116,0.314816,0.488880
612,1.645313,0.258452,0.514826
613,1.642758,0.329855,0.475484
614,1.597453,0.254558,0.511554
615,1.713247,0.413348,0.414999
616,1.665408,0.409759,0.412045
617,1.690181,0.364082,0.451939
618,1.620207,0.460406,0.347437
619,1.574096,0.480750,0.310030
620,1.618888,0.433288,0.378264
621,1.597151,0.470578,0.328733
622,1.548043,0.439530,0.356264
623,1.669861,0.488238,0.316293
624,1.691554,0.450793,0.365646
625,1.645034,0.474322,0.331865
626,1.601557,0.510852,0.256608
627,1.649440,0.514596,0.259740
628,4.509923,0.563549,0.355353
629,4.437120,0.583513,0.321296
630,4.390807,0.555907,0.366667
631,4.500031,0.518826,0.411607
632,4.473521,0.573531,0.338325
633,4.413963,0.569710,0.343981
634,4.440473,0.515004,0.417264
635,4.410655,0.621823,0.238931
636,4.470212,0.624319,0.232612
637,4.423887,0.602668,0.280114
638,4.519846,0.595182,0.290823
639,4.341175,0.586195,0.309051
640,4.351099,0.619153,0.245183
641,4.430648,0.646286,0.161689
642,4.405869,0.649952,0.144903
643,4.465432,0.651319,0.138276
644,4.420651,0.634054,0.200310
645,4.578446,0.569913,0.345315
646,4.590624,0.551327,0.372770
647,4.544185,0.566731,0.350334
648,4.622622,0.606344,0.276763
649,4.669052,0.594056,0.301058
650,4.600534,0.588129,0.311039
651,4.576195,0.616580,0.251528
652,4.660082,0.639517,0.188138
653,4.692664,0.642324,0.178136
654,4.641352,0.622930,0.232450
655,4.646239,0.648044,0.151502
656,4.518313,0.360092,0.560544
657,4.590961,0.353386,0.564953
658,4.504225,0.417097,0.514203
659,4.554637,0.356739,0.562748
660,4.602073,0.381938,0.544914
661,4.616177,0.319483,0.583605
662,4.532430,0.294325,0.593284
663,4.602973,0.000000,0.666411
664,4.584087,0.077230,0.661947
665,4.508607,0.116050,0.656160
666,4.536839,0.000000,0.666292
667,4.593530,0.038615,0.664179
668,4.546347,0.096640,0.659053
669,4.489656,0.058025,0.661166
670,4.612436,0.096641,0.659161
671,4.669011,0.000000,0.666487
672,4.527578,0.172304,0.641092
673,4.462176,0.324629,0.581727
674,4.441088,0.347559,0.567589
675,4.490244,0.342360,0.571135
676,4.448239,0.240221,0.621422
677,4.399084,0.245999,0.618983
678,4.455207,0.282425,0.601574
679,4.497393,0.234390,0.623723
680,4.455705,0.162592,0.646120
681,4.482156,0.139321,0.651140
682,4.432995,0.145443,0.649891
683,4.451972,0.201407,0.633771
684,1.976142,0.596879,0.110877
685,2.024697,0.605894,0.073782
686,1.995421,0.608337,0.000000
687,1.923396,0.598037,0.055439
688,2.000420,0.601387,0.092329
689,2.010059,0.607116,0.036891
690,1.933035,0.603766,0.000000
691,2.063364,0.605597,0.092295
692,2.029613,0.585546,0.164435
693,2.058821,0.612418,0.000000
694,1.082112,0.352552,0.358476
695,1.186143,0.364128,0.372251
696,1.192580,0.410740,0.321818
697,1.144214,0.426038,0.287235
698,1.134127,0.358340,0.365364
699,1.189362,0.387434,0.347035
700,1.168397,0.418389,0.304526
701,1.113163,0.389295,0.322856
702,1.290492,0.374334,0.384627
703,1.248534,0.437199,0.300606
704,1.269513,0.405767,0.342617
705,1.220557,0.423970,0.311212
706,1.238318,0.369231,0.378439
707,1.176959,0.454541,0.246044
708,1.229119,0.460121,0.252730
709,1.100352,0.281517,0.420649
710,1.163370,0.314328,0.410493
711,1.091232,0.317035,0.389563
712,1.131861,0.297922,0.415571
713,1.174757,0.339228,0.391372
714,1.121630,0.201035,0.468743
715,1.204606,0.292810,0.434268
716,1.163118,0.246923,0.451505
717,1.183988,0.303569,0.422381
718,1.110991,0.241276,0.444696
719,1.247549,0.333572,0.409448
720,1.995421,0.000000,0.608337
721,2.024703,0.073845,0.605887
722,1.976151,0.110973,0.596861
723,1.933035,0.000000,0.603766
724,2.010062,0.036923,0.607112
725,2.000427,0.092409,0.601374
726,1.923400,0.055487,0.598028
727,2.102040,0.110904,0.605283
728,2.112130,0.055452,0.610891
729,2.063371,0.092375,0.605585
730,2.058821,0.000000,0.612418
731,2.083104,0.218175,0.574146
732,2.029627,0.164574,0.585504
733,2.092572,0.164539,0.589714
734,3.154824,0.654343,0.000000
735,3.024542,0.651588,0.000000
736,3.053291,0.646871,0.083937
737,3.133070,0.641731,0.126153
738,3.089683,0.652965,0.000000
739,3.038916,0.649229,0.041969
740,3.093180,0.644301,0.105045
741,3.143947,0.648037,0.063077
742,3.002600,0.638840,0.126183
743,2.948285,0.643608,0.063092
744,3.027945,0.642856,0.105060
745,2.959256,0.649982,0.000000
746,3.111812,0.604884,0.247562
747,3.122441,0.623307,0.186858
748,3.057206,0.621862,0.186873
749,3.174398,0.333733,0.563278
750,3.265559,0.306374,0.580525
751,3.192310,0.383795,0.527174
752,3.219979,0.320054,0.571901
753,3.297241,0.326671,0.569449
754,3.293464,0.236122,0.613052
755,3.216243,0.228910,0.614245
756,3.279512,0.271248,0.596788
757,3.156710,0.277716,0.589358
758,3.370692,0.243189,0.611483
759,0.666507,0.290539,0.279773
760,0.687556,0.345759,0.220066
761,0.629104,0.316609,0.230184
762,0.590541,0.272041,0.263028
763,0.677032,0.318149,0.249920
764,0.658330,0.331184,0.225125
765,0.609823,0.294325,0.246606
766,0.628524,0.281290,0.271401
767,0.611268,0.327684,0.203156
768,0.662144,0.358164,0.177821
769,0.620186,0.322147,0.216670
770,0.700288,0.367201,0.186277
771,0.553015,0.261846,0.253741
772,0.563378,0.289668,0.223804
773,0.615311,0.379067,0.077849
774,0.577723,0.347377,0.138721
775,0.664165,0.383855,0.115168
776,0.596517,0.363222,0.108285
777,0.594496,0.337530,0.170938
778,0.522961,0.353795,0.000000
779,0.510396,0.323584,0.130668
780,0.516678,0.338690,0.065334
781,0.544059,0.335481,0.134695
782,0.569136,0.366431,0.038925
783,0.512942,0.287618,0.187561
784,3.818878,0.345975,0.565661
785,3.801536,0.413848,0.517782
786,3.778761,0.309332,0.584715
787,3.810207,0.379912,0.541721
788,3.777115,0.413836,0.517524
789,3.899194,0.413852,0.518730
790,3.833109,0.475293,0.462342
791,3.866151,0.444573,0.490536
792,3.817323,0.444570,0.490062
793,3.859036,0.379914,0.542195
794,3.800108,0.502261,0.430496
795,3.911147,0.489098,0.448568
796,3.983186,0.467144,0.472040
797,3.914156,0.505732,0.429015
798,3.947167,0.478121,0.460304
799,4.025206,0.491128,0.446004
800,3.872128,0.482196,0.455455
801,3.941190,0.440498,0.495385
802,3.881415,0.316546,0.583231
803,3.876998,0.290374,0.595981
804,3.850146,0.331261,0.574446
805,3.952815,0.338001,0.571596
806,3.979667,0.296787,0.592483
807,3.917115,0.327274,0.577413
808,3.926004,0.375927,0.545163
809,3.990899,0.402977,0.527990
810,3.987042,0.435061,0.500015
811,4.013830,0.400126,0.530313
812,3.971857,0.370489,0.549793
813,1.504716,0.554949,0.103397
814,1.544187,0.564716,0.068795
815,1.501652,0.564064,0.000000
816,1.443698,0.552217,0.051699
817,1.524451,0.559832,0.086096
818,1.522919,0.564390,0.034397
819,1.442166,0.556775,0.000000
820,1.584831,0.566446,0.086015
821,1.566867,0.547951,0.153291
822,1.562722,0.570645,0.000000
823,2.575915,0.619259,0.155198
824,2.547246,0.594614,0.229346
825,2.620357,0.624502,0.138900
826,2.561581,0.606936,0.192272
827,2.621655,0.595227,0.235023
828,2.545957,0.622819,0.132876
829,2.472857,0.593499,0.223475
830,2.249187,0.623667,0.000000
831,2.298928,0.621943,0.073587
832,2.313322,0.626840,0.000000
833,2.274058,0.622805,0.036794
834,2.343222,0.621374,0.092045
835,2.279371,0.618192,0.092090
836,2.185704,0.620083,0.000000
837,2.505246,0.000000,0.635540
838,2.470415,0.075013,0.629708
839,2.441351,0.000000,0.632776
840,2.487830,0.037506,0.632624
841,2.429495,0.093849,0.625086
842,2.493738,0.093875,0.627872
843,2.569792,0.000000,0.637978
844,2.201455,0.148918,0.603083
845,2.241826,0.220215,0.583196
846,2.151747,0.129911,0.604183
847,2.221640,0.184566,0.593139
848,2.162465,0.219195,0.578671
849,2.231163,0.130848,0.608592
850,2.321224,0.220988,0.587069
851,0.224889,0.105338,0.174239
852,0.238730,0.100840,0.186835
853,0.207062,0.083762,0.171026
854,0.238388,0.150921,0.149463
855,0.271639,0.165909,0.162774
856,0.231639,0.128129,0.161851
857,0.206499,0.134433,0.134667
858,0.225042,0.175046,0.104194
859,0.207004,0.171108,0.083768
860,0.239067,0.188116,0.098799
861,0.231715,0.162983,0.126829
862,1.382679,0.000000,0.549486
863,1.501652,0.000000,0.564064
864,1.542359,0.068411,0.564560
865,1.501973,0.102816,0.554736
866,1.442166,0.000000,0.556775
867,1.522006,0.034206,0.564312
868,1.522166,0.085614,0.559648
869,1.442326,0.051408,0.552111
870,1.582543,0.085537,0.566278
871,1.562722,0.000000,0.570645
872,1.562741,0.152452,0.547755
873,0.858616,0.435765,0.134478
874,0.932509,0.456454,0.124021
875,0.837958,0.437370,0.106145
876,0.895563,0.446109,0.129250
877,0.929334,0.463985,0.062011
878,0.828568,0.402775,0.197597
879,0.770794,0.395709,0.175042
880,0.843592,0.419270,0.166037
881,0.945770,0.410960,0.239781
882,0.939140,0.433707,0.181901
883,0.887169,0.406868,0.218689
884,1.035114,0.000000,0.494043
885,1.063848,0.068364,0.494861
886,1.021776,0.102762,0.480662
887,0.980636,0.000000,0.482779
888,1.049481,0.034182,0.494452
889,1.042812,0.085563,0.487761
890,0.973967,0.051381,0.476088
891,1.149345,0.000000,0.514729
892,1.133722,0.102560,0.501768
893,1.141534,0.051280,0.508249
894,1.098785,0.085462,0.498314
895,1.092230,0.000000,0.504386
896,1.071703,0.151899,0.474702
897,1.127676,0.151798,0.485255
898,3.601527,0.541046,0.379681
899,3.518722,0.546745,0.369730
900,3.622087,0.517550,0.409670
901,3.560124,0.543896,0.374705
902,3.518479,0.501089,0.423663
903,3.643282,0.576321,0.324711
904,3.705194,0.552775,0.361680
905,3.622404,0.558684,0.352196
906,3.519150,0.579910,0.307330
907,3.581430,0.594698,0.284820
908,1.077764,0.422053,0.271925
909,1.013017,0.385414,0.302000
910,1.110989,0.424046,0.279580
911,1.045391,0.403734,0.286962
912,1.047565,0.368983,0.330238
913,1.077221,0.449508,0.223567
914,1.143463,0.466276,0.214210
915,1.077493,0.435781,0.247746
916,0.979394,0.398187,0.270890
917,1.011496,0.430234,0.231674
918,1.465181,0.453278,0.328388
919,1.406631,0.428498,0.348756
920,1.406124,0.386963,0.394215
921,1.493585,0.425794,0.365442
922,1.435906,0.440888,0.338572
923,1.406378,0.407731,0.371485
924,1.464057,0.392637,0.398356
925,1.410217,0.495752,0.245207
926,1.349282,0.441457,0.319571
927,1.379749,0.468605,0.282389
928,1.377956,0.434977,0.334163
929,1.437699,0.474515,0.286797
930,1.348308,0.380649,0.389421
931,1.319887,0.407896,0.352099
932,1.302253,0.458308,0.282723
933,1.309820,0.490301,0.225447
934,1.275393,0.447754,0.291665
935,1.306036,0.474304,0.254085
936,1.259762,0.486672,0.215150
937,1.325767,0.449883,0.301147
938,1.360018,0.493026,0.235327
939,1.519285,0.486904,0.288723
940,1.546690,0.483827,0.299377
941,1.492233,0.470091,0.308555
942,1.519459,0.519648,0.224758
943,1.574239,0.530301,0.213972
944,1.519372,0.503276,0.256741
945,1.464838,0.507700,0.234983
946,1.742121,0.248708,0.533395
947,1.731797,0.307815,0.500432
948,1.682816,0.225398,0.537084
949,1.736959,0.278262,0.516914
950,1.699456,0.311316,0.494656
951,1.861160,0.293297,0.521671
952,1.786726,0.356705,0.472810
953,1.823943,0.325001,0.497241
954,1.759261,0.332260,0.486621
955,1.801641,0.271002,0.527533
956,1.749986,0.385027,0.443905
957,2.038815,0.431871,0.432399
958,1.950378,0.481115,0.366968
959,1.919821,0.425874,0.426644
960,1.949567,0.366125,0.481684
961,1.994596,0.456493,0.399683
962,1.935099,0.453494,0.396806
963,1.934694,0.395999,0.454164
964,1.994191,0.398998,0.457041
965,1.862776,0.521141,0.294493
966,1.860251,0.422587,0.423482
967,1.861514,0.471864,0.358988
968,1.890036,0.424230,0.425063
969,1.906577,0.501128,0.330730
970,1.905363,0.329711,0.501678
971,1.860706,0.357942,0.472577
972,1.993702,0.319482,0.517538
973,2.060092,0.332362,0.514606
974,1.971634,0.342803,0.499611
975,2.026897,0.325922,0.516072
976,2.049453,0.382117,0.473502
977,1.971982,0.256637,0.549834
978,1.916571,0.274967,0.535753
979,1.982842,0.288059,0.533686
980,2.071598,0.275268,0.544376
981,2.027543,0.237406,0.561990
982,0.648182,0.394304,0.051796
983,0.614977,0.386804,0.000000
984,0.631747,0.386685,0.064823
985,0.631580,0.390554,0.025898
986,0.568969,0.370300,0.000000
987,0.680297,0.402174,0.064643
988,0.665353,0.402505,0.000000
989,0.617684,0.241043,0.303597
990,0.670153,0.233178,0.330545
991,0.604113,0.256542,0.283313
992,0.643919,0.237111,0.317071
993,0.668330,0.261859,0.305159
994,0.605912,0.227567,0.308590
995,0.674009,0.200702,0.350562
996,0.614977,0.000000,0.386804
997,0.635992,0.057350,0.389576
998,0.568969,0.000000,0.370300
999,0.625484,0.028675,0.388190
1000,0.616647,0.071753,0.380292
1001,0.694204,0.085916,0.402874
1002,0.704967,0.042958,0.410540
1003,0.665098,0.071633,0.396225
1004,0.665353,0.000000,0.402505
1005,0.686034,0.127071,0.386727
1006,4.930270,0.455340,0.486755
1007,4.865593,0.418949,0.518416
1008,4.965135,0.425894,0.511318
1009,4.897932,0.437145,0.502586
1010,4.866858,0.393860,0.536861
1011,4.798388,0.430050,0.509189
1012,4.829465,0.469143,0.470206
1013,4.831991,0.424500,0.513803
1014,4.895406,0.481788,0.458989
1015,4.767317,0.385083,0.541225
1016,4.770746,0.488058,0.453841
1017,4.748295,0.482637,0.459507
1018,4.779378,0.517812,0.416956
1019,4.784567,0.459054,0.481515
1020,5.000000,0.471312,0.471312
1021,4.953513,0.484072,0.458195
1022,5.000000,0.433880,0.503596
1023,4.976757,0.477692,0.464754
1024,4.941892,0.469706,0.472475
1025,5.000000,0.535881,0.396449
1026,4.930271,0.522352,0.414069
1027,4.965135,0.529116,0.405259
1028,4.941892,0.503212,0.436132
1029,5.000000,0.503596,0.433880
1030,4.895406,0.515294,0.422646
1031,5.000000,0.588773,0.312796
1032,4.953513,0.564532,0.354565
1033,5.000000,0.562327,0.354622
1034,4.976756,0.576653,0.333680
1035,4.941892,0.543442,0.384317
1036,4.941891,0.571188,0.343524
1037,5.000000,0.608622,0.267793
1038,3.972857,0.655175,0.109524
1039,4.050830,0.660672,0.072904
1040,4.074765,0.664760,0.000000
1041,3.958207,0.659584,0.054762
1042,4.011844,0.657924,0.091214
1043,4.062797,0.662716,0.036452
1044,4.009161,0.664376,0.000000
1045,4.104487,0.655915,0.109531
1046,4.053379,0.642146,0.162795
1047,4.077659,0.658294,0.091218
1048,3.987564,0.641776,0.162791
1049,4.140780,0.665064,0.000000
1050,4.155641,0.660641,0.054765
1051,1.811173,0.419648,0.420802
1052,1.787527,0.471771,0.358189
1053,1.798949,0.388177,0.446806
1054,1.799350,0.445710,0.389496
1055,1.750387,0.442559,0.386594
1056,1.835712,0.421117,0.422142
1057,1.825152,0.496456,0.326341
1058,1.734166,0.499828,0.309197
1059,1.745685,0.533208,0.249855
1060,1.702013,0.494033,0.312745
1061,1.739925,0.516518,0.279526
1062,1.687352,0.537081,0.226520
1063,1.760846,0.485800,0.333693
1064,1.804231,0.527175,0.272174
1065,2.060076,0.514455,0.332593
1066,1.994231,0.517242,0.320028
1067,2.049445,0.473163,0.382496
1068,2.027153,0.515849,0.326310
1069,1.972305,0.499178,0.343498
1070,1.972777,0.549648,0.257167
1071,2.027931,0.561931,0.237579
1072,1.983504,0.533445,0.288597
1073,2.071580,0.544334,0.275292
1074,1.917777,0.535394,0.275830
1075,4.179353,0.572123,0.339466
1076,4.120308,0.593815,0.299441
1077,4.123289,0.543617,0.379717
1078,4.149831,0.582969,0.319453
1079,4.077499,0.587291,0.311244
1080,4.146905,0.622763,0.233872
1081,4.219224,0.619623,0.242654
1082,4.133607,0.608289,0.266656
1083,4.235448,0.594303,0.295450
1084,4.074588,0.625570,0.224965
1085,4.166827,0.646251,0.158154
1086,4.135657,0.651083,0.133842
1087,4.207975,0.649720,0.143133
1088,4.156866,0.634507,0.196013
1089,0.075185,0.000000,0.083439
1090,0.080583,0.025004,0.085093
1091,0.065899,0.037362,0.064145
1092,0.060859,0.000000,0.068786
1093,0.077884,0.012502,0.084266
1094,0.073241,0.031183,0.074619
1095,0.056216,0.018681,0.059139
1096,0.099122,0.037487,0.099192
1097,0.107302,0.018744,0.109885
1098,0.089853,0.031245,0.092142
1099,0.095333,0.000000,0.102009
1100,0.091668,0.071513,0.068661
1101,0.078783,0.054437,0.066403
1102,0.095395,0.054500,0.083926
1103,0.075185,0.083439,0.000000
1104,0.080911,0.085735,0.023907
1105,0.099546,0.100216,0.035823
1106,0.095333,0.102009,0.000000
1107,0.078048,0.084587,0.011953
1108,0.090228,0.092975,0.029865
1109,0.107514,0.110397,0.017911
1110,0.066170,0.065380,0.035732
1111,0.056352,0.059757,0.017866
1112,0.073540,0.075557,0.029819
1113,0.060859,0.068786,0.000000
1114,0.095607,0.085864,0.052242
1115,0.078919,0.068447,0.052196
1116,0.055916,0.045782,0.044744
1117,0.060908,0.041572,0.054444
1118,0.047252,0.038979,0.038459
1119,0.061043,0.055581,0.040238
1120,1.505897,0.220995,0.519590
1121,1.463618,0.149899,0.539268
1122,1.564704,0.211541,0.530181
1123,1.484758,0.185447,0.529429
1124,1.482795,0.126357,0.547002
1125,1.388608,0.238793,0.495806
1126,1.383866,0.122424,0.535933
1127,1.386237,0.180608,0.515869
1128,1.423742,0.136161,0.537600
1129,1.447252,0.229894,0.507698
1130,1.383273,0.061212,0.542709
1131,1.254880,0.220576,0.483721
1132,1.265733,0.275490,0.456504
1133,1.188255,0.210805,0.476232
1134,1.260307,0.248033,0.470113
1135,1.235169,0.284150,0.445386
1136,1.338578,0.310625,0.446035
1137,1.363593,0.274709,0.470920
1138,1.302156,0.293057,0.451269
1139,1.321744,0.229684,0.489764
1140,1.314535,0.342479,0.415331
1141,1.937271,0.174585,0.578574
1142,1.954627,0.215611,0.564204
1143,1.956711,0.142779,0.587718
1144,1.864371,0.151582,0.579314
1145,1.862766,0.222439,0.550493
1146,1.900821,0.163084,0.578944
1147,1.867510,0.075791,0.589255
1148,1.783889,0.169200,0.567538
1149,1.765039,0.135993,0.573702
1150,1.763005,0.208954,0.550467
1151,1.824130,0.160391,0.573426
1152,3.879432,0.631300,0.204770
1153,3.841927,0.604682,0.272762
1154,3.940851,0.629838,0.210414
1155,3.860679,0.617991,0.238766
1156,3.863278,0.595396,0.292004
1157,3.761763,0.590557,0.300608
1158,3.759179,0.612208,0.246986
1159,3.801845,0.597620,0.286685
1160,3.818013,0.632579,0.199067
1161,3.764435,0.559893,0.349629
1162,3.681020,0.598787,0.282162
1163,3.638080,0.624120,0.219376
1164,3.662151,0.587554,0.303436
1165,3.659550,0.611453,0.250769
1166,3.578829,0.618597,0.232152
1167,3.721392,0.594672,0.291385
1168,3.697337,0.628989,0.206370
1169,3.900756,0.649309,0.138006
1170,3.936807,0.652242,0.123765
1171,3.890094,0.640304,0.171388
1172,3.875388,0.652737,0.117880
1173,3.651836,0.644906,0.148077
1174,3.644958,0.634513,0.183727
1175,3.625648,0.647074,0.136397
1176,3.684934,0.649973,0.122912
1177,0.760768,0.127988,0.411524
1178,0.786931,0.188308,0.395400
1179,0.727486,0.106952,0.407199
1180,0.773849,0.158148,0.403462
1181,0.732398,0.178267,0.382990
1182,0.782001,0.117125,0.420404
1183,0.841998,0.197479,0.405988
1184,1.009020,0.204528,0.444144
1185,0.979396,0.138984,0.462560
1186,1.065325,0.202781,0.456443
1187,0.994208,0.171756,0.453352
1188,1.000586,0.120873,0.471611
1189,0.944167,0.122494,0.459073
1190,0.953042,0.205588,0.430360
1191,1.786259,0.567507,0.170010
1192,1.765972,0.550358,0.209932
1193,1.767599,0.573760,0.136682
1194,1.865167,0.579205,0.152244
1195,1.863971,0.550173,0.223369
1196,1.825713,0.573356,0.161127
1197,1.867908,0.589200,0.076122
1198,1.937797,0.578502,0.174957
1199,1.956970,0.587690,0.142917
1200,1.955287,0.564075,0.216062
1201,1.901482,0.578854,0.163601
1202,0.871606,0.366280,0.276609
1203,0.877671,0.319984,0.331011
1204,0.917217,0.321702,0.341878
1205,0.908688,0.388620,0.258195
1206,0.874638,0.343132,0.303810
1207,0.897444,0.320843,0.336445
1208,0.931494,0.366331,0.290830
1209,0.799350,0.315162,0.308566
1210,0.846663,0.264605,0.367701
1211,0.823006,0.289883,0.338133
1212,0.862167,0.292294,0.349356
1213,0.835478,0.340721,0.292587
1214,0.907141,0.264176,0.379227
1215,0.871864,0.235627,0.392138
1216,0.789597,0.233728,0.371125
1217,0.736544,0.245942,0.345527
1218,0.788264,0.211018,0.383263
1219,0.763070,0.239835,0.358326
1220,0.707204,0.207084,0.358053
1221,0.818130,0.249167,0.369413
1222,0.767947,0.280552,0.327047
1223,0.712680,0.262060,0.324692
1224,0.724612,0.254001,0.335110
1225,0.691417,0.247619,0.327618
1226,0.732704,0.303417,0.294720
1227,0.766027,0.309289,0.301643
1228,0.722692,0.282739,0.309706
1229,0.699606,0.296978,0.287247
1230,2.912359,0.584280,0.282344
1231,2.953185,0.537196,0.365673
1232,3.005992,0.562726,0.327654
1233,3.012075,0.594987,0.265134
1234,2.932772,0.560738,0.324008
1235,2.979589,0.549961,0.346663
1236,3.009034,0.578857,0.296394
1237,2.962217,0.589634,0.273739
1238,2.994359,0.478488,0.441070
1239,3.052857,0.550408,0.349875
1240,3.023608,0.514448,0.395473
1241,3.029425,0.556567,0.338765
1242,2.973772,0.507842,0.403371
1243,3.061944,0.599936,0.256348
1244,3.082335,0.577646,0.298719
1245,2.787585,0.457783,0.454747
1246,2.849725,0.528303,0.373701
1247,2.798380,0.554417,0.330989
1248,2.741426,0.537414,0.354741
1249,2.818655,0.493043,0.414224
1250,2.824052,0.541360,0.352345
1251,2.769903,0.545916,0.342865
1252,2.764506,0.497598,0.404744
1253,2.804196,0.590558,0.261744
1254,2.858278,0.587419,0.272044
1255,2.801288,0.572488,0.296367
1256,2.881042,0.556291,0.328022
1257,2.718745,0.566627,0.297721
1258,2.750130,0.593199,0.251222
1259,3.097469,0.322384,0.568098
1260,3.041314,0.261238,0.597439
1261,3.135934,0.328058,0.565688
1262,3.069392,0.291811,0.582768
1263,3.090168,0.241468,0.606439
1264,3.076840,0.369561,0.537988
1265,3.143531,0.401709,0.514529
1266,3.087155,0.345972,0.553043
1267,2.943677,0.299509,0.576545
1268,2.992495,0.280374,0.586992
1269,3.010259,0.334535,0.557267
1270,2.742634,0.359210,0.534475
1271,2.809637,0.339594,0.549562
1272,2.865418,0.383267,0.521926
1273,2.765110,0.408496,0.494611
1274,2.776136,0.349402,0.542019
1275,2.837527,0.361431,0.535744
1276,2.826502,0.420525,0.488337
1277,2.821048,0.273441,0.585760
1278,2.759757,0.260055,0.589617
1279,2.815342,0.306517,0.567661
1280,2.720550,0.302940,0.563975
1281,2.904548,0.341388,0.549236
1282,2.882362,0.286475,0.581152
1283,2.833766,0.621910,0.177897
1284,2.818981,0.606234,0.219820
1285,2.814213,0.627927,0.150263
1286,2.902734,0.632347,0.144832
1287,2.907547,0.608314,0.213588
1288,2.868250,0.627129,0.161364
1289,2.898352,0.640362,0.072416
1290,2.972399,0.625020,0.180241
1291,2.987499,0.631930,0.153212
1292,2.992237,0.610004,0.222687
1293,2.937566,0.628683,0.162536
1294,2.844971,0.186169,0.619814
1295,2.820407,0.155982,0.626587
1296,2.833009,0.229805,0.602787
1297,2.918344,0.154171,0.630558
1298,2.906157,0.077085,0.639467
1299,2.881657,0.170170,0.625186
1300,2.931010,0.226840,0.603551
1301,2.991906,0.177379,0.626323
1302,3.016610,0.219308,0.611881
1303,3.004086,0.144967,0.634007
1304,2.955125,0.165775,0.628440
1305,1.472628,0.539640,0.152546
1306,1.488672,0.547294,0.127972
1307,1.496043,0.529644,0.188652
1308,1.394601,0.536566,0.125868
1309,1.388640,0.543026,0.062934
1310,1.433615,0.538103,0.139207
1311,1.402409,0.516159,0.185537
1312,1.332571,0.520756,0.153356
1313,1.321195,0.505528,0.189401
1314,1.313578,0.523988,0.128974
1315,1.363586,0.528661,0.139612
1316,2.382084,0.447414,0.443677
1317,2.473888,0.452160,0.444601
1318,2.448208,0.509030,0.376419
1319,2.389618,0.532053,0.338391
1320,2.427986,0.449787,0.444139
1321,2.461048,0.480595,0.410510
1322,2.418913,0.520542,0.357405
1323,2.385851,0.489734,0.391034
1324,2.565708,0.456632,0.445257
1325,2.481504,0.536418,0.338976
1326,2.523606,0.496525,0.392116
1327,2.464856,0.522724,0.357698
1328,2.519798,0.454396,0.444929
1329,2.394044,0.562219,0.277997
1330,2.439987,0.564401,0.278290
1331,2.552957,0.558693,0.306921
1332,2.630458,0.536370,0.349601
1333,2.550102,0.576653,0.268133
1334,2.591708,0.547531,0.328261
1335,2.663261,0.566105,0.295151
1336,2.517231,0.547555,0.322948
1337,2.598083,0.496501,0.397429
1338,2.682748,0.512281,0.386942
1339,2.656603,0.524325,0.368271
1340,2.712087,0.524848,0.370841
1341,2.676639,0.457372,0.450164
1342,2.621174,0.457002,0.447710
1343,2.679693,0.484827,0.418553
1344,2.732112,0.457577,0.452455
1345,2.631626,0.358984,0.530169
1346,2.554439,0.314713,0.554393
1347,2.665046,0.302827,0.561822
1348,2.593032,0.336849,0.542281
1349,2.551981,0.274566,0.573558
1350,2.482531,0.347603,0.530905
1351,2.524119,0.402117,0.488081
1352,2.518485,0.331158,0.542649
1353,2.598667,0.407808,0.487713
1354,2.441576,0.284682,0.560924
1355,2.390692,0.342481,0.529480
1356,2.448901,0.383333,0.503871
1357,2.386388,0.394948,0.486579
1358,2.419796,0.362907,0.516676
1359,2.461394,0.417746,0.474236
1360,2.465716,0.365468,0.517388
1361,2.395657,0.282121,0.560212
1362,2.683538,0.394058,0.506851
1363,2.713086,0.376634,0.520663
1364,2.657582,0.376521,0.518510
1365,2.680088,0.425715,0.478508
1366,2.305151,0.406025,0.477034
1367,2.336574,0.349117,0.522064
1368,2.343618,0.426720,0.460355
1369,2.320863,0.377571,0.499549
1370,2.363633,0.345799,0.525772
1371,2.228457,0.361534,0.506751
1372,2.314268,0.294237,0.553705
1373,2.271363,0.327885,0.530228
1374,2.325421,0.321677,0.537885
1375,2.266804,0.383779,0.491893
1376,2.357445,0.257999,0.572324
1377,2.237122,0.269359,0.561861
1378,2.155476,0.292332,0.545055
1379,2.239474,0.244787,0.572529
1380,2.196299,0.280846,0.553458
1381,2.119290,0.255253,0.559600
1382,2.275695,0.281798,0.557783
1383,2.191967,0.326933,0.525903
1384,2.304945,0.479126,0.403541
1385,2.279225,0.442928,0.441105
1386,2.343515,0.463270,0.423609
1387,2.292085,0.461027,0.422323
1388,2.292188,0.424477,0.459069
1389,2.228029,0.507435,0.360536
1390,2.227782,0.440531,0.439678
1391,2.227905,0.473983,0.400107
1392,2.253503,0.441730,0.440391
1393,2.266487,0.493281,0.382038
1394,2.228120,0.401032,0.473215
1395,2.116226,0.342394,0.512192
1396,2.135851,0.317363,0.528623
1397,2.088159,0.337378,0.513399
1398,2.133496,0.398223,0.471373
1399,2.180977,0.379879,0.489062
1400,2.124861,0.370309,0.491782
1401,2.086155,0.415047,0.451886
1402,2.164758,0.437812,0.437423
1403,2.133277,0.471512,0.398038
1404,2.149127,0.418018,0.454398
1405,2.149018,0.454662,0.417731
1406,2.086046,0.451692,0.415219
1407,2.196270,0.439171,0.438551
1408,2.180653,0.489474,0.379287
1409,2.116073,0.512310,0.342201
1410,2.155256,0.545377,0.291706
1411,2.088075,0.513382,0.337397
1412,2.135664,0.528843,0.316953
1413,2.119170,0.559795,0.254849
1414,2.124675,0.491911,0.370120
1415,2.191642,0.526406,0.326121
1416,2.335714,0.524030,0.346091
1417,2.362666,0.528042,0.342241
1418,2.320330,0.501578,0.374816
1419,2.312967,0.554960,0.291732
1420,2.355718,0.573672,0.254668
1421,2.324340,0.539495,0.318912
1422,2.270498,0.531198,0.326134
1423,2.236252,0.562656,0.267592
1424,2.195754,0.554016,0.279649
1425,2.238496,0.573304,0.242817
1426,2.274609,0.558808,0.279662
1427,1.399464,0.341495,0.433150
1428,1.369021,0.326060,0.439592
1429,1.402794,0.364229,0.413683
1430,1.454357,0.323065,0.455501
1431,1.421482,0.280929,0.475653
1432,1.426910,0.332280,0.444325
1433,1.488173,0.360688,0.428999
1434,1.510258,0.284657,0.488115
1435,1.540827,0.295843,0.485225
1436,1.508078,0.252826,0.503852
1437,1.482308,0.303861,0.471808
1438,1.320413,0.058416,0.537950
1439,1.263191,0.038950,0.531411
1440,1.264158,0.000000,0.532960
1441,1.351546,0.029208,0.543718
1442,1.291802,0.048683,0.534681
1443,1.263674,0.019475,0.532186
1444,1.323418,0.000000,0.541223
1445,1.259121,0.116087,0.519488
1446,1.203701,0.058412,0.520428
1447,1.231411,0.087250,0.519958
1448,1.233446,0.048681,0.525920
1449,1.289767,0.087251,0.528719
1450,1.206752,0.000000,0.523845
1451,1.176523,0.029206,0.517579
1452,1.175521,0.107182,0.507999
1453,1.189952,0.159361,0.496608
1454,1.154621,0.104871,0.504883
1455,1.182736,0.133271,0.502303
1456,1.155791,0.180198,0.482675
1457,1.189611,0.082797,0.514213
1458,1.224537,0.137724,0.508048
1459,1.342195,0.120353,0.530701
1460,1.363030,0.121388,0.533317
1461,1.331304,0.089384,0.534325
1462,1.323332,0.178701,0.511251
1463,1.355970,0.208747,0.503528
1464,1.332764,0.149527,0.520976
1465,1.291227,0.147394,0.515369
1466,1.255916,0.186561,0.498027
1467,1.222934,0.172961,0.497317
1468,1.255398,0.203568,0.490874
1469,1.289624,0.182631,0.504639
1470,0.462965,0.272393,0.185502
1471,0.408900,0.243895,0.184099
1472,0.408465,0.218936,0.212857
1473,0.489226,0.262022,0.214978
1474,0.435932,0.258144,0.184800
1475,0.408683,0.231416,0.198478
1476,0.461977,0.235294,0.228655
1477,0.415088,0.284071,0.120363
1478,0.357492,0.236619,0.150867
1479,0.386290,0.260345,0.135615
1480,0.383196,0.240257,0.167483
1481,0.439027,0.278232,0.152933
1482,0.356678,0.199917,0.194471
1483,0.331191,0.208758,0.163476
1484,0.352192,0.258208,0.102937
1485,0.381928,0.286370,0.061243
1486,0.336568,0.251167,0.098238
1487,0.367060,0.272289,0.082090
1488,0.367827,0.282540,0.030621
1489,0.354842,0.247414,0.126902
1490,0.398508,0.285220,0.090803
1491,0.478109,0.310839,0.127498
1492,0.494252,0.317212,0.129083
1493,0.470537,0.291616,0.156500
1494,0.466296,0.325300,0.061378
1495,0.494628,0.339548,0.030689
1496,0.472202,0.318070,0.094438
1497,0.440692,0.304686,0.090871
1498,0.427832,0.311616,0.040914
1499,0.432493,0.316346,0.000000
1500,0.404880,0.298993,0.051079
1501,0.430163,0.313981,0.020457
1502,0.393109,0.297529,0.000000
1503,0.447064,0.318458,0.051146
1504,0.477727,0.335070,0.000000
1505,0.381278,0.062989,0.285668
1506,0.351484,0.106042,0.256552
1507,0.367502,0.031495,0.282189
1508,0.366381,0.084516,0.271110
1509,0.335924,0.101279,0.249586
1510,0.414068,0.123672,0.282131
1511,0.356839,0.155158,0.233421
1512,0.385454,0.139415,0.257776
1513,0.354162,0.130600,0.244986
1514,0.397673,0.093330,0.283899
1515,0.330865,0.168028,0.204753
1516,0.408408,0.189519,0.239409
1517,0.462265,0.191108,0.268116
1518,0.408437,0.204227,0.226133
1519,0.435337,0.190313,0.253763
1520,0.488877,0.221380,0.256285
1521,0.382624,0.172339,0.236415
1522,0.438167,0.157390,0.275124
1523,0.432493,0.000000,0.316346
1524,0.427362,0.042078,0.311249
1525,0.393109,0.000000,0.297529
1526,0.429927,0.021039,0.313797
1527,0.404320,0.052534,0.298458
1528,0.465630,0.063136,0.324679
1529,0.494295,0.031568,0.339237
1530,0.446496,0.052607,0.317964
1531,0.477727,0.000000,0.335070
1532,0.439849,0.093404,0.303405
1533,0.477298,0.131638,0.308740
1534,0.469781,0.161373,0.288428
1535,0.493510,0.133432,0.315078
1536,0.471464,0.097387,0.316710
1537,3.268088,0.500619,0.424396
1538,3.215860,0.541609,0.369142
1539,3.160684,0.533296,0.379242
1540,3.239154,0.467237,0.457733
1541,3.241974,0.521114,0.396769
1542,3.188272,0.537453,0.374192
1543,3.185453,0.483576,0.435157
1544,3.326185,0.557070,0.348969
1545,3.218953,0.583228,0.299424
1546,3.272569,0.570149,0.324197
1547,3.217406,0.562418,0.334283
1548,3.297136,0.528845,0.386682
1549,3.136248,0.569090,0.313402
1550,3.165382,0.594056,0.273493
1551,3.408938,0.626797,0.202647
1552,3.381287,0.607659,0.253232
1553,3.422844,0.587520,0.298194
1554,3.464259,0.619936,0.223788
1555,3.395113,0.617228,0.227939
1556,3.402065,0.597589,0.275713
1557,3.471211,0.600297,0.271562
1558,3.298344,0.637422,0.159362
1559,3.312133,0.604754,0.257368
1560,3.305238,0.621088,0.208365
1561,3.346710,0.606206,0.255300
1562,3.353641,0.632110,0.181004
1563,3.374514,0.572295,0.323582
1564,3.319159,0.580912,0.303168
1565,3.351464,0.486150,0.442885
1566,3.357844,0.465514,0.463737
1567,3.309776,0.493384,0.433641
1568,3.422138,0.510256,0.416556
1569,3.470187,0.482844,0.447075
1570,3.386801,0.498203,0.429721
1571,3.374162,0.533663,0.382762
1572,3.454530,0.550388,0.362801
1573,3.438687,0.568954,0.330498
1574,3.486626,0.548567,0.366266
1575,3.438334,0.530322,0.389678
1576,3.102269,0.456867,0.466780
1577,3.049264,0.408340,0.508350
1578,3.156245,0.445361,0.478925
1579,3.075766,0.432603,0.487565
1580,3.063052,0.388950,0.523169
1581,2.968782,0.394907,0.516521
1582,2.981570,0.436697,0.478795
1583,3.009023,0.401623,0.512435
1584,3.048314,0.467677,0.453925
1585,2.956229,0.347208,0.546533
1586,2.908335,0.417008,0.496834
1587,2.890965,0.468332,0.448096
1588,2.886876,0.400138,0.509380
1589,2.899650,0.442670,0.472465
1590,2.839275,0.463057,0.451422
1591,2.938558,0.405957,0.506677
1592,2.942662,0.473410,0.444583
1593,3.105202,0.515699,0.400990
1594,3.132943,0.524498,0.390116
1595,3.103736,0.486283,0.433885
1596,3.079030,0.533053,0.375433
1597,2.897911,0.512537,0.397135
1598,2.894438,0.490434,0.422615
1599,2.873818,0.520420,0.385418
1600,2.925548,0.524866,0.381404
1601,0.122400,0.066131,0.107881
1602,0.130922,0.064067,0.117133
1603,0.110761,0.051809,0.103536
1604,0.132200,0.095529,0.095062
1605,0.153405,0.106737,0.107466
1606,0.127300,0.080830,0.101472
1607,0.111934,0.083521,0.081861
1608,0.122450,0.108151,0.065774
1609,0.110998,0.104183,0.050798
1610,0.130841,0.116887,0.064458
1611,0.127325,0.101840,0.080418
1612,0.817631,0.377429,0.237293
1613,0.823099,0.390102,0.217445
1614,0.844618,0.371854,0.256951
1615,0.753901,0.358831,0.235077
1616,0.733460,0.373737,0.193782
1617,0.785766,0.368130,0.236185
1618,0.776625,0.336996,0.271821
1619,0.724206,0.337277,0.251294
1620,0.728455,0.320347,0.273007
1621,0.705881,0.341518,0.235680
1622,0.739053,0.348054,0.243185
1623,1.032136,0.257356,0.421032
1624,1.066244,0.269436,0.420841
1625,1.020578,0.230942,0.432588
1626,0.988198,0.283580,0.393029
1627,1.035155,0.318066,0.375753
1628,1.010167,0.270468,0.407031
1629,0.942631,0.245115,0.404802
1630,0.972203,0.332593,0.347904
1631,0.944710,0.327148,0.344891
1632,0.992610,0.359004,0.324952
1633,0.980200,0.308087,0.370467
1634,3.214018,0.174368,0.631974
1635,3.291968,0.200077,0.625733
1636,3.176520,0.198033,0.623706
1637,3.252993,0.187222,0.628853
1638,3.292716,0.218100,0.619393
1639,3.289088,0.125981,0.644674
1640,3.368455,0.189054,0.630412
1641,3.328772,0.157517,0.637543
1642,3.330212,0.194565,0.628073
1643,3.251553,0.150174,0.638324
1644,3.408188,0.219655,0.620163
1645,3.384520,0.127022,0.645992
1646,3.352958,0.063284,0.654774
1647,3.408385,0.127280,0.646288
1648,3.368739,0.095153,0.650383
1649,3.384940,0.031642,0.656750
1650,3.376488,0.158038,0.638202
1651,3.321023,0.094632,0.649724
1652,3.194188,0.117066,0.644646
1653,3.170459,0.114794,0.644585
1654,3.204103,0.145717,0.638310
1655,3.221900,0.063285,0.652582
1656,3.188362,0.031643,0.653463
1657,3.208044,0.090176,0.648614
1658,3.255494,0.094633,0.648628
1659,3.286898,0.042172,0.655395
1660,3.285421,0.000000,0.656705
1661,3.319928,0.052728,0.655085
1662,3.286160,0.021086,0.656050
1663,3.351172,0.000000,0.657716
1664,3.254399,0.052729,0.653989
1665,3.220123,0.000000,0.655524
1666,3.205045,0.622860,0.204022
1667,3.188167,0.640517,0.137417
1668,3.158428,0.613872,0.225792
1669,3.196606,0.631689,0.170719
1670,3.160619,0.641124,0.131785
1671,3.226495,0.650810,0.080284
1672,3.262419,0.644116,0.119823
1673,3.207331,0.645664,0.108850
1674,3.251694,0.630141,0.181692
1675,3.190659,0.652577,0.040142
1676,3.285421,0.656705,0.000000
1677,3.289956,0.654630,0.053481
1678,3.357558,0.652997,0.080281
1679,3.351172,0.657716,0.000000
1680,3.287688,0.655668,0.026741
1681,3.323757,0.653814,0.066881
1682,3.387240,0.655862,0.040141
1683,3.258225,0.652720,0.066883
1684,3.220123,0.655524,0.000000
1685,3.327951,0.645210,0.119822
1686,3.245350,0.604910,0.254119
1687,3.232151,0.594069,0.276772
1688,3.225197,0.613885,0.229071
1689,3.278741,0.604832,0.255744
1690,3.411498,0.644469,0.136465
1691,3.384528,0.648733,0.108373
1692,3.439796,0.646048,0.130589
1693,3.410218,0.635633,0.169556
1694,1.100920,0.502667,0.060862
1695,1.136397,0.500643,0.110106
1696,1.125133,0.508698,0.030431
1697,1.118659,0.501655,0.085484
1698,1.157119,0.504795,0.107295
1699,1.053893,0.482849,0.120793
1700,1.131434,0.484943,0.163497
1701,1.092664,0.483896,0.142145
1702,1.133916,0.492793,0.136802
1703,1.077406,0.492758,0.090828
1704,1.170569,0.483993,0.184175
1705,1.068971,0.463019,0.190151
1706,0.998812,0.451581,0.182178
1707,1.073096,0.456264,0.206859
1708,1.033892,0.457300,0.186164
1709,0.972291,0.431270,0.210979
1710,1.100203,0.473981,0.176824
1711,1.026353,0.467215,0.151486
1712,1.035114,0.494043,0.000000
1713,1.042344,0.493793,0.040597
1714,1.092230,0.504386,0.000000
1715,1.038729,0.493918,0.020299
1716,1.071632,0.498230,0.050730
1717,0.989214,0.481120,0.060891
1718,0.957686,0.476317,0.030445
1719,1.015779,0.487456,0.050744
1720,0.980636,0.482779,0.000000
1721,1.021554,0.481984,0.090842
1722,0.972992,0.465690,0.122983
1723,0.985902,0.458636,0.152580
1724,0.952751,0.461072,0.123502
1725,0.981103,0.473405,0.091937
1726,4.267042,0.352043,0.564853
1727,4.225622,0.398883,0.532537
1728,4.264543,0.317814,0.583538
1729,4.246332,0.375463,0.548695
1730,4.199893,0.356733,0.559363
1731,4.290266,0.361310,0.558940
1732,4.251380,0.436545,0.499731
1733,4.172802,0.440834,0.498025
1734,4.172179,0.495233,0.443962
1735,4.146718,0.431921,0.505494
1736,4.172490,0.468033,0.470994
1737,4.119702,0.505172,0.431965
1738,4.199212,0.419859,0.515281
1739,4.224658,0.484720,0.455443
1740,4.352907,0.530562,0.402216
1741,4.371857,0.543234,0.384441
1742,4.368273,0.502372,0.434818
1743,4.284298,0.555872,0.366131
1744,4.287920,0.586178,0.308783
1745,4.318602,0.543217,0.384174
1746,4.280718,0.515040,0.416528
1747,4.211932,0.542773,0.384776
1748,4.192055,0.519003,0.414369
1749,4.195643,0.557448,0.362121
1750,4.248115,0.549323,0.375454
1751,0.025270,0.021575,-0.021575
1752,0.019311,0.000000,-0.023578
1753,0.022291,0.022576,-0.010788
1754,0.022291,0.010788,-0.022576
1755,0.009656,0.000000,-0.011789
1756,0.038589,0.032175,-0.032175
1757,0.042561,0.043154,-0.016088
1758,0.031929,0.026875,-0.026875
1759,0.046533,0.000000,-0.054134
1760,0.032922,0.000000,-0.038856
1761,0.042561,0.016088,-0.043154
1762,4.470706,0.000000,-0.666173
1763,4.500217,0.114863,-0.656351
1764,4.578493,0.076443,-0.662028
1765,4.602973,0.000000,-0.666411
1766,4.485461,0.057431,-0.661262
1767,4.539355,0.095653,-0.659190
1768,4.590733,0.038222,-0.664220
1769,4.536839,0.000000,-0.666292
1770,4.529768,0.226293,-0.626816
1771,4.632395,0.114866,-0.656571
1772,4.581082,0.170580,-0.641694
1773,4.605444,0.095655,-0.659300
1774,4.514992,0.170578,-0.641584
1775,4.735049,0.000000,-0.666562
1776,4.669011,0.000000,-0.666487
1777,4.683722,0.057433,-0.661567
1778,4.715482,0.325354,-0.581768
1779,4.788010,0.380072,-0.547565
1780,4.858672,0.330096,-0.579192
1781,4.857740,0.275077,-0.607333
1782,4.751746,0.352713,-0.564667
1783,4.823341,0.355084,-0.563379
1784,4.858206,0.302586,-0.593262
1785,4.786611,0.300216,-0.594550
1786,4.860542,0.431223,-0.508236
1787,4.930269,0.332484,-0.577845
1788,4.895405,0.381854,-0.543040
1789,4.894470,0.331290,-0.578519
1790,4.824276,0.405648,-0.527900
1791,5.000000,0.222791,-0.628470
1792,4.928870,0.248934,-0.617901
1793,4.965134,0.277638,-0.603157
1794,4.867521,0.113032,-0.657082
1795,4.816836,0.186923,-0.640012
1796,4.933760,0.167911,-0.642776
1797,4.842178,0.149977,-0.648547
1798,4.837288,0.231000,-0.623672
1799,4.725246,0.168133,-0.645131
1800,4.730147,0.084067,-0.655846
1801,4.771041,0.177528,-0.642571
1802,4.801285,0.056516,-0.661822
1803,4.720364,0.246744,-0.613449
1804,4.867521,0.657082,-0.113032
1805,4.823756,0.638407,-0.192348
1806,4.735627,0.642940,-0.176369
1807,4.801285,0.661822,-0.056516
1808,4.845639,0.647744,-0.152690
1809,4.779692,0.640673,-0.184359
1810,4.735338,0.654751,-0.088185
1811,5.000000,0.628470,-0.222791
1812,4.868122,0.603764,-0.282814
1813,4.934061,0.616117,-0.252803
1814,4.845939,0.621085,-0.237581
1815,4.933760,0.642776,-0.167911
1816,4.736246,0.573261,-0.340115
1817,4.735936,0.608100,-0.258242
1818,4.802184,0.588512,-0.311465
1819,5.000000,0.588773,-0.312796
1820,4.912081,0.583633,-0.322238
1821,5.000000,0.608622,-0.267793
1822,4.956040,0.586203,-0.317517
1823,4.890101,0.593698,-0.302526
1824,5.000000,0.535881,-0.396449
1825,4.868123,0.555306,-0.368772
1826,4.934061,0.545593,-0.382610
1827,4.890102,0.569470,-0.345505
1828,5.000000,0.562327,-0.354622
1829,4.802184,0.564283,-0.354443
1830,4.641393,0.602257,-0.285581
1831,4.672596,0.637672,-0.194350
1832,4.688820,0.587759,-0.312848
1833,4.656995,0.619964,-0.239965
1834,4.704111,0.640306,-0.185360
1835,4.546548,0.626024,-0.228559
1836,4.640785,0.656375,-0.116053
1837,4.593667,0.641199,-0.172306
1838,4.656691,0.647023,-0.155202
1839,4.593971,0.614141,-0.257070
1840,4.687917,0.661468,-0.058026
1841,5.000000,0.000000,-0.666667
1842,4.867045,0.000000,-0.666643
1843,4.911681,0.075226,-0.662451
1844,5.000000,0.113803,-0.656974
1845,4.933522,0.000000,-0.666655
1846,4.889363,0.037613,-0.664547
1847,4.955840,0.094514,-0.659712
1848,5.000000,0.056901,-0.661820
1849,4.889601,0.094129,-0.659766
1850,4.801047,0.000000,-0.666602
1851,5.000000,0.168297,-0.642722
1852,4.490138,0.467861,-0.474102
1853,4.613184,0.524876,-0.410490
1854,4.647270,0.466114,-0.476179
1855,4.602802,0.400225,-0.532741
1856,4.551661,0.496369,-0.442296
1857,4.630227,0.495495,-0.443334
1858,4.625036,0.433170,-0.504460
1859,4.546470,0.434043,-0.503422
1860,4.725844,0.465173,-0.477216
1861,4.731045,0.519217,-0.408665
1862,4.686557,0.465644,-0.476697
1863,4.674715,0.549068,-0.375302
1864,4.659142,0.362789,-0.557255
1865,4.720663,0.395263,-0.529492
1866,4.911681,0.662451,-0.075226
1867,4.889363,0.664547,-0.037613
1868,4.889601,0.659766,-0.094129
1869,5.000000,0.656974,-0.113803
1870,5.000000,0.661820,-0.056901
1871,4.955840,0.659712,-0.094514
1872,5.000000,0.642722,-0.168297
1873,3.840985,0.648543,-0.139487
1874,3.787158,0.656379,-0.092744
1875,3.892271,0.656268,-0.069744
1876,3.814071,0.652461,-0.116116
1877,3.799176,0.659703,-0.046372
1878,3.738645,0.603768,-0.272688
1879,3.708985,0.647390,-0.139475
1880,3.723815,0.625579,-0.206081
1881,3.748071,0.651885,-0.116110
1882,3.789815,0.626156,-0.206087
1883,3.694295,0.654620,-0.069738
1884,3.518236,0.477595,-0.455433
1885,3.364223,0.484588,-0.444879
1886,3.391990,0.533750,-0.385316
1887,3.482931,0.553295,-0.359052
1888,3.441230,0.481092,-0.450156
1889,3.378107,0.509169,-0.415097
1890,3.437461,0.543522,-0.372184
1891,3.500584,0.515445,-0.407242
1892,3.210221,0.491071,-0.433856
1893,3.328924,0.558374,-0.346967
1894,3.269573,0.524722,-0.390412
1895,3.360457,0.546062,-0.366142
1896,3.287222,0.487830,-0.439368
1897,3.447921,0.609913,-0.250256
1898,3.465426,0.581604,-0.304654
1899,3.388422,0.584144,-0.298612
1900,2.377456,0.000000,-0.630012
1901,2.387516,0.110503,-0.620805
1902,2.469711,0.073566,-0.629847
1903,2.505246,0.000000,-0.635540
1904,2.382486,0.055252,-0.625409
1905,2.428614,0.092034,-0.625326
1906,2.487479,0.036783,-0.632694
1907,2.441351,0.000000,-0.632776
1908,2.398469,0.217604,-0.592385
1909,2.515999,0.110554,-0.626380
1910,2.457234,0.164079,-0.609382
1911,2.492855,0.092060,-0.628113
1912,2.392992,0.164053,-0.606595
1913,2.634339,0.000000,-0.640415
1914,2.569792,0.000000,-0.637978
1915,2.575169,0.055277,-0.633397
1916,2.698466,0.593474,-0.246670
1917,2.549523,0.592722,-0.234419
1918,2.577417,0.618419,-0.158743
1919,2.665978,0.629164,-0.125768
1920,2.623994,0.593098,-0.240545
1921,2.563470,0.605571,-0.196581
1922,2.621698,0.623792,-0.142256
1923,2.682222,0.611319,-0.186219
1924,2.400622,0.590943,-0.221762
1925,2.517060,0.626036,-0.112737
1926,2.458841,0.608489,-0.167249
1927,2.547239,0.622227,-0.135740
1928,2.475072,0.591833,-0.228090
1929,2.650158,0.634789,-0.062884
1930,2.575700,0.633225,-0.056368
1931,3.146730,0.644525,-0.112522
1932,3.062412,0.648171,-0.074905
1933,3.150777,0.649434,-0.056261
1934,3.104571,0.646348,-0.093714
1935,3.043477,0.649879,-0.037453
1936,3.139021,0.615438,-0.221698
1937,3.016267,0.641691,-0.112556
1938,3.077644,0.628565,-0.167127
1939,3.039339,0.644931,-0.093731
1940,3.142875,0.629982,-0.167110
1941,2.955118,0.645034,-0.056278
1942,3.974958,0.651389,-0.130319
1943,3.896152,0.639079,-0.179465
1944,3.959257,0.657691,-0.065160
1945,3.935555,0.645234,-0.154892
1946,3.868569,0.643811,-0.159476
1947,4.006519,0.613370,-0.255574
1948,3.872581,0.608732,-0.264201
1949,3.939550,0.611051,-0.259887
1950,3.884366,0.623905,-0.221833
1951,3.990738,0.632379,-0.192946
1952,3.805613,0.606250,-0.268444
1953,4.052228,0.659028,-0.086685
1954,4.063496,0.661894,-0.043343
1955,4.013593,0.655208,-0.108502
1956,4.106593,0.652130,-0.130327
1957,4.156693,0.658749,-0.065164
1958,4.079410,0.655579,-0.108506
1959,4.056556,0.632750,-0.192950
1960,4.067225,0.419969,-0.515111
1961,4.036761,0.532635,-0.397275
1962,4.082560,0.552220,-0.370072
1963,4.120633,0.512962,-0.423009
1964,4.051993,0.476302,-0.456193
1965,4.059660,0.542427,-0.383673
1966,4.101596,0.532591,-0.396540
1967,4.093929,0.466465,-0.469060
1968,4.090337,0.600529,-0.285435
1969,4.048428,0.606949,-0.270504
1970,4.086448,0.576374,-0.327754
1971,4.021640,0.573002,-0.326424
1972,4.174163,0.586188,-0.314583
1973,4.147398,0.549575,-0.368796
1974,4.132250,0.593358,-0.300009
1975,4.190395,0.645352,-0.162203
1976,4.129088,0.636095,-0.194471
1977,4.198594,0.655360,-0.081101
1978,4.159741,0.640724,-0.178337
1979,4.117840,0.644113,-0.162399
1980,4.109712,0.618312,-0.239953
1981,4.182279,0.615770,-0.238393
1982,2.083084,0.217992,-0.574214
1983,2.240739,0.218041,-0.583951
1984,2.200741,0.147404,-0.603413
1985,2.102031,0.110807,-0.605300
1986,2.161912,0.218017,-0.579083
1987,2.220740,0.182723,-0.593682
1988,2.151386,0.129106,-0.604356
1989,2.092557,0.164400,-0.589757
1990,2.259814,0.110593,-0.614441
1991,2.329142,0.164098,-0.603413
1992,2.230277,0.128998,-0.608927
1993,2.319604,0.217823,-0.588168
1994,2.122221,0.000000,-0.616499
1995,2.112126,0.055404,-0.610899
1996,2.191018,0.055296,-0.615470
1997,2.388575,0.620464,-0.112686
1998,2.299629,0.621806,-0.075036
1999,2.383015,0.625238,-0.056343
2000,2.344102,0.621135,-0.093861
2001,2.274408,0.622737,-0.037518
2002,2.260871,0.614102,-0.112778
2003,2.330746,0.602522,-0.167270
2004,2.280250,0.617954,-0.093907
2005,2.394599,0.605703,-0.167224
2006,2.191546,0.615300,-0.056389
2007,1.870650,0.000000,-0.599195
2008,1.746106,0.000000,-0.588815
2009,1.707000,0.068761,-0.581265
2010,1.748940,0.103355,-0.580013
2011,1.808378,0.000000,-0.594005
2012,1.726553,0.034381,-0.585040
2013,1.727970,0.086058,-0.580639
2014,1.809795,0.051677,-0.589604
2015,1.623792,0.000000,-0.577225
2016,1.625475,0.103236,-0.568175
2017,1.624633,0.051618,-0.572700
2018,1.666237,0.085998,-0.574720
2019,1.684949,0.000000,-0.583020
2020,1.629019,0.203186,-0.540954
2021,1.688980,0.153270,-0.560483
2022,1.627247,0.153211,-0.554564
2023,1.746189,0.579866,-0.102786
2024,1.705168,0.581138,-0.068382
2025,1.808419,0.589530,-0.051393
2026,1.725678,0.580502,-0.085584
2027,1.725637,0.584977,-0.034191
2028,1.623510,0.540773,-0.202088
2029,1.622727,0.567997,-0.102662
2030,1.623118,0.554385,-0.152375
2031,1.663947,0.574568,-0.085522
2032,1.684849,0.560319,-0.152437
2033,1.623259,0.572611,-0.051331
2034,0.320363,0.242620,-0.096515
2035,0.283522,0.231552,-0.064118
2036,0.337044,0.260666,-0.048257
2037,0.301942,0.237086,-0.080317
2038,0.280922,0.234351,-0.032059
2039,0.304890,0.176086,-0.180895
2040,0.252571,0.199431,-0.096342
2041,0.278731,0.187759,-0.138619
2042,0.268047,0.215492,-0.080230
2043,0.312627,0.209353,-0.138705
2044,0.234875,0.198936,-0.048171
2045,0.353725,0.000000,-0.278711
2046,0.278323,0.000000,-0.237151
2047,0.284019,0.062179,-0.232382
2048,0.320944,0.093540,-0.244124
2049,0.316024,0.000000,-0.257931
2050,0.281171,0.031089,-0.234766
2051,0.302481,0.077860,-0.238253
2052,0.337334,0.046770,-0.261418
2053,0.217179,0.000000,-0.198440
2054,0.253091,0.093405,-0.201186
2055,0.235135,0.046702,-0.199813
2056,0.268555,0.077792,-0.216784
2057,0.247751,0.000000,-0.217796
2058,0.312917,0.134813,-0.212510
2059,0.278990,0.134746,-0.191041
2060,4.206794,0.000000,-0.665367
2061,4.249122,0.128113,-0.653189
2062,4.322979,0.085223,-0.660369
2063,4.339216,0.000000,-0.665833
2064,4.227958,0.064056,-0.659278
2065,4.286051,0.106668,-0.656779
2066,4.331098,0.042612,-0.663101
2067,4.273005,0.000000,-0.665600
2068,4.291543,0.251435,-0.616484
2069,4.381090,0.128117,-0.653618
2070,4.336317,0.189776,-0.635051
2071,4.352035,0.106670,-0.656994
2072,4.270333,0.189774,-0.634836
2073,4.404961,0.000000,-0.666003
2074,4.425898,0.064058,-0.659896
2075,4.278318,0.653260,-0.128295
2076,4.243573,0.637009,-0.193125
2077,4.242556,0.659313,-0.064147
2078,4.260946,0.645134,-0.160710
2079,4.216984,0.641181,-0.177664
2080,4.349930,0.616543,-0.251776
2081,4.262043,0.602223,-0.283584
2082,4.305986,0.609383,-0.267680
2083,4.252808,0.619616,-0.238354
2084,4.314124,0.634902,-0.190035
2085,4.218103,0.594206,-0.299084
2086,4.383638,0.467419,-0.474182
2087,4.372368,0.526642,-0.407416
2088,4.420000,0.553451,-0.370488
2089,4.436888,0.467640,-0.474142
2090,4.378003,0.497031,-0.440799
2091,4.396184,0.540046,-0.388952
2092,4.455069,0.510656,-0.422295
2093,4.277138,0.466925,-0.474207
2094,4.313490,0.553027,-0.370578
2095,4.295314,0.509976,-0.422392
2096,4.342929,0.539834,-0.388997
2097,4.330388,0.467172,-0.474194
2098,4.384965,0.584997,-0.311132
2099,4.331710,0.584785,-0.311177
2100,4.342443,0.660414,-0.085342
2101,4.340829,0.663123,-0.042671
2102,4.310381,0.656837,-0.106818
2103,4.410286,0.653663,-0.128293
2104,4.440496,0.659918,-0.064147
2105,4.376364,0.657038,-0.106818
2106,4.380108,0.635103,-0.190035
2107,1.382679,0.000000,-0.549486
2108,1.264158,0.000000,-0.532960
2109,1.245726,0.069585,-0.525656
2110,1.294585,0.104591,-0.527220
2111,1.323418,0.000000,-0.541223
2112,1.254942,0.034793,-0.529308
2113,1.270156,0.087088,-0.526438
2114,1.338632,0.052296,-0.538353
2115,1.149345,0.000000,-0.514729
2116,1.177841,0.104485,-0.508947
2117,1.163593,0.052242,-0.511838
2118,1.211783,0.087035,-0.517301
2119,1.206752,0.000000,-0.523845
2120,1.209704,0.204853,-0.483043
2121,1.252145,0.154722,-0.505132
2122,1.193773,0.154669,-0.495995
2123,0.677864,0.370579,-0.168226
2124,0.594140,0.313582,-0.214090
2125,0.565699,0.339254,-0.147046
2126,0.597302,0.371008,-0.086156
2127,0.636002,0.342080,-0.191158
2128,0.579920,0.326418,-0.180568
2129,0.581501,0.355131,-0.116601
2130,0.637583,0.370793,-0.127191
2131,0.515488,0.244453,-0.251651
2132,0.509723,0.321416,-0.135226
2133,0.512606,0.282935,-0.193438
2134,0.537711,0.330335,-0.141136
2135,0.554814,0.279018,-0.232871
2136,0.560131,0.362401,-0.043078
2137,0.516342,0.337606,-0.067613
2138,3.679606,0.000000,-0.661849
2139,3.718033,0.097747,-0.655040
2140,3.793198,0.065088,-0.659718
2141,3.811194,0.000000,-0.663027
2142,3.698819,0.048873,-0.658445
2143,3.755615,0.081417,-0.657379
2144,3.802196,0.032544,-0.661372
2145,3.745400,0.000000,-0.662438
2146,3.756595,0.193364,-0.633859
2147,3.850020,0.097753,-0.656165
2148,3.803307,0.145558,-0.645012
2149,3.821609,0.081420,-0.657942
2150,3.737314,0.145555,-0.644449
2151,3.943557,0.000000,-0.663992
2152,3.877375,0.000000,-0.663510
2153,3.896789,0.048876,-0.660079
2154,3.628341,0.548517,-0.369349
2155,3.674520,0.504270,-0.428415
2156,3.642648,0.439658,-0.494055
2157,3.573288,0.513056,-0.412391
2158,3.651431,0.526394,-0.398882
2159,3.658584,0.471964,-0.461235
2160,3.580442,0.458627,-0.474744
2161,3.752694,0.517267,-0.413825
2162,3.745670,0.560517,-0.343256
2163,3.713607,0.510768,-0.421120
2164,3.683493,0.576143,-0.321019
2165,3.767107,0.398650,-0.529228
2166,3.704877,0.419154,-0.511642
2167,3.759901,0.457959,-0.471527
2168,4.034691,0.323047,-0.580766
2169,3.945480,0.349304,-0.564684
2170,3.917165,0.409463,-0.522365
2171,4.050958,0.371508,-0.547939
2172,3.990085,0.336176,-0.572725
2173,3.931322,0.379384,-0.543525
2174,3.992195,0.414716,-0.518738
2175,4.002271,0.216059,-0.628377
2176,3.884629,0.311246,-0.586110
2177,3.943450,0.263653,-0.607244
2178,3.915055,0.330275,-0.575397
2179,4.018481,0.269553,-0.604572
2180,3.842136,0.404057,-0.525797
2181,3.825868,0.354948,-0.557669
2182,0.926158,0.000000,-0.471515
2183,0.818064,0.000000,-0.445950
2184,0.782918,0.051737,-0.433806
2185,0.817299,0.077812,-0.438975
2186,0.872111,0.000000,-0.458732
2187,0.800491,0.025869,-0.439878
2188,0.800109,0.064775,-0.436390
2189,0.871729,0.038906,-0.455245
2190,0.715730,0.000000,-0.418205
2191,0.712411,0.077489,-0.410044
2192,0.714070,0.038744,-0.414125
2193,0.747664,0.064613,-0.421925
2194,0.766897,0.000000,-0.432077
2195,0.713020,0.152487,-0.388643
2196,0.765160,0.115150,-0.413809
2197,0.712716,0.114988,-0.399344
2198,0.115482,0.000000,-0.120579
2199,0.139221,0.063195,-0.125586
2200,0.162757,0.042166,-0.153567
2201,0.158703,0.000000,-0.156088
2202,0.127351,0.031597,-0.123083
2203,0.150989,0.052680,-0.139577
2204,0.160730,0.021083,-0.154827
2205,0.137092,0.000000,-0.138333
2206,0.174608,0.119960,-0.117853
2207,0.188952,0.063397,-0.167139
2208,0.181780,0.091678,-0.142496
2209,0.175855,0.052781,-0.160353
2210,0.156915,0.091577,-0.121719
2211,0.187941,0.000000,-0.177264
2212,0.203066,0.031698,-0.182789
2213,0.189248,0.167842,-0.062130
2214,0.162998,0.153983,-0.041338
2215,0.203214,0.183141,-0.031065
2216,0.176123,0.160912,-0.051734
2217,0.160851,0.155035,-0.020669
2218,0.139455,0.126420,-0.061949
2219,0.157032,0.123190,-0.089901
2220,0.151226,0.140202,-0.051643
2221,0.181928,0.143901,-0.089991
2222,0.127468,0.123500,-0.030974
2223,0.908938,0.455585,-0.106003
2224,0.843501,0.446787,-0.070668
2225,0.917548,0.463550,-0.053002
2226,0.876219,0.451186,-0.088335
2227,0.830782,0.446368,-0.035334
2228,0.897064,0.416575,-0.206649
2229,0.803234,0.429284,-0.106263
2230,0.850149,0.422929,-0.156456
2231,0.823367,0.438035,-0.088465
2232,0.903001,0.436080,-0.156326
2233,0.759482,0.423744,-0.053132
2234,3.548524,0.000000,-0.660431
2235,3.538574,0.082973,-0.655139
2236,3.599460,0.124718,-0.649243
2237,3.614065,0.000000,-0.661140
2238,3.543549,0.041486,-0.657785
2239,3.569017,0.103845,-0.652191
2240,3.639533,0.062359,-0.655546
2241,3.416923,0.000000,-0.658726
2242,3.468093,0.124713,-0.647627
2243,3.442508,0.062356,-0.653176
2244,3.503334,0.103843,-0.651383
2245,3.482723,0.000000,-0.659579
2246,3.519579,0.244929,-0.613075
2247,3.559520,0.184823,-0.631159
2248,3.493836,0.184821,-0.630351
2249,3.568159,0.571869,-0.330831
2250,3.525545,0.562582,-0.344941
2251,3.598250,0.560193,-0.350090
2252,3.593280,0.607084,-0.261577
2253,3.520600,0.608499,-0.255917
2254,3.580720,0.589477,-0.296204
2255,3.665962,0.605426,-0.267132
2256,3.621925,0.637085,-0.177633
2257,3.563617,0.648280,-0.127558
2258,3.665455,0.642238,-0.158554
2259,3.592771,0.642683,-0.152595
2260,3.621611,0.655065,-0.063779
2261,3.607602,0.622085,-0.219605
2262,3.505769,0.629097,-0.188907
2263,3.514677,0.654607,-0.084847
2264,3.539147,0.651444,-0.106203
2265,3.531601,0.657519,-0.042424
2266,3.432249,0.646585,-0.127538
2267,3.440085,0.628249,-0.188897
2268,3.473463,0.650596,-0.106192
2269,3.424586,0.652656,-0.063769
2270,2.664798,0.122603,-0.629745
2271,2.741122,0.081579,-0.638837
2272,2.763671,0.000000,-0.644664
2273,2.649569,0.061301,-0.635080
2274,2.702960,0.102091,-0.634291
2275,2.752396,0.040790,-0.641751
2276,2.699005,0.000000,-0.642539
2277,2.696064,0.240701,-0.595840
2278,2.794661,0.122630,-0.633943
2279,2.745363,0.181665,-0.614892
2280,2.767891,0.102105,-0.636390
2281,2.680431,0.181652,-0.612793
2282,2.893970,0.000000,-0.648376
2283,2.828820,0.000000,-0.646520
2284,2.844315,0.061315,-0.641159
2285,2.741905,0.638593,-0.083675
2286,2.752788,0.641629,-0.041838
2287,2.703942,0.633879,-0.104722
2288,2.795843,0.633361,-0.125795
2289,2.844907,0.640868,-0.062897
2290,2.768874,0.635977,-0.104735
2291,2.747155,0.613418,-0.186232
2292,1.521989,0.402497,-0.398311
2293,1.571395,0.482336,-0.307029
2294,1.618399,0.462088,-0.344895
2295,1.617569,0.409092,-0.406171
2296,1.546692,0.442417,-0.352670
2297,1.594897,0.472212,-0.325962
2298,1.617984,0.435590,-0.375533
2299,1.569779,0.405795,-0.402241
2300,1.667116,0.488880,-0.314816
2301,1.645313,0.514826,-0.258452
2302,1.642758,0.475484,-0.329855
2303,1.597453,0.511554,-0.254558
2304,1.713247,0.414999,-0.413348
2305,1.665408,0.412045,-0.409759
2306,1.690181,0.451939,-0.364082
2307,1.620207,0.347437,-0.460406
2308,1.574096,0.310030,-0.480750
2309,1.618888,0.378264,-0.433288
2310,1.597151,0.328733,-0.470578
2311,1.548043,0.356264,-0.439530
2312,1.669861,0.316293,-0.488238
2313,1.691554,0.365646,-0.450793
2314,1.645034,0.331865,-0.474322
2315,1.601557,0.256608,-0.510852
2316,1.649440,0.259740,-0.514596
2317,4.509923,0.355353,-0.563549
2318,4.437120,0.321296,-0.583513
2319,4.390807,0.366667,-0.555907
2320,4.500031,0.411607,-0.518826
2321,4.473521,0.338325,-0.573531
2322,4.413963,0.343981,-0.569710
2323,4.440473,0.417264,-0.515004
2324,4.410655,0.238931,-0.621823
2325,4.470212,0.232612,-0.624319
2326,4.423887,0.280114,-0.602668
2327,4.519846,0.290823,-0.595182
2328,4.341175,0.309051,-0.586195
2329,4.351099,0.245183,-0.619153
2330,4.430648,0.161689,-0.646286
2331,4.405869,0.144903,-0.649952
2332,4.465432,0.138276,-0.651319
2333,4.420651,0.200310,-0.634054
2334,4.578446,0.345315,-0.569913
2335,4.590624,0.372770,-0.551327
2336,4.544185,0.350334,-0.566731
2337,4.622622,0.276763,-0.606344
2338,4.669052,0.301058,-0.594056
2339,4.600534,0.311039,-0.588129
2340,4.576195,0.251528,-0.616580
2341,4.660082,0.188138,-0.639517
2342,4.692664,0.178136,-0.642324
2343,4.641352,0.232450,-0.622930
2344,4.646239,0.151502,-0.648044
2345,4.508607,0.656160,-0.116050
2346,4.455705,0.646120,-0.162592
2347,4.489656,0.661166,-0.058025
2348,4.482156,0.651140,-0.139321
2349,4.432995,0.649891,-0.145443
2350,4.448239,0.621422,-0.240221
2351,4.497393,0.623723,-0.234390
2352,4.451972,0.633771,-0.201407
2353,4.527578,0.641092,-0.172304
2354,4.399084,0.618983,-0.245999
2355,4.462176,0.581727,-0.324629
2356,4.518313,0.560544,-0.360092
2357,4.441088,0.567589,-0.347559
2358,4.490244,0.571135,-0.342360
2359,4.504225,0.514203,-0.417097
2360,4.455207,0.601574,-0.282425
2361,4.532430,0.593284,-0.294325
2362,4.584087,0.661947,-0.077230
2363,4.593530,0.664179,-0.038615
2364,4.546347,0.659053,-0.096640
2365,4.612436,0.659161,-0.096641
2366,4.590961,0.564953,-0.353386
2367,4.554637,0.562748,-0.356739
2368,4.602073,0.544914,-0.381938
2369,4.616177,0.583605,-0.319483
2370,1.976142,0.110877,-0.596879
2371,2.024697,0.073782,-0.605894
2372,1.995421,0.000000,-0.608337
2373,1.923396,0.055439,-0.598037
2374,2.000420,0.092329,-0.601387
2375,2.010059,0.036891,-0.607116
2376,1.933035,0.000000,-0.603766
2377,2.063364,0.092295,-0.605597
2378,2.029613,0.164435,-0.585546
2379,2.058821,0.000000,-0.612418
2380,1.082112,0.358476,-0.352552
2381,1.186143,0.372251,-0.364128
2382,1.192580,0.321818,-0.410740
2383,1.144214,0.287235,-0.426038
2384,1.134127,0.365364,-0.358340
2385,1.189362,0.347035,-0.387434
2386,1.168397,0.304526,-0.418389
2387,1.113163,0.322856,-0.389295
2388,1.290492,0.384627,-0.374334
2389,1.248534,0.300606,-0.437199
2390,1.269513,0.342617,-0.405767
2391,1.220557,0.311212,-0.423970
2392,1.238318,0.378439,-0.369231
2393,1.176959,0.246044,-0.454541
2394,1.229119,0.252730,-0.460121
2395,1.100352,0.420649,-0.281517
2396,1.163370,0.410493,-0.314328
2397,1.091232,0.389563,-0.317035
2398,1.131861,0.415571,-0.297922
2399,1.174757,0.391372,-0.339228
2400,1.121630,0.468743,-0.201035
2401,1.204606,0.434268,-0.292810
2402,1.163118,0.451505,-0.246923
2403,1.183988,0.422381,-0.303569
2404,1.110991,0.444696,-0.241276
2405,1.247549,0.409448,-0.333572
2406,2.024703,0.605887,-0.073845
2407,1.976151,0.596861,-0.110973
2408,2.010062,0.607112,-0.036923
2409,2.000427,0.601374,-0.092409
2410,1.923400,0.598028,-0.055487
2411,2.102040,0.605283,-0.110904
2412,2.112130,0.610891,-0.055452
2413,2.063371,0.605585,-0.092375
2414,2.083104,0.574146,-0.218175
2415,2.029627,0.585504,-0.164574
2416,2.092572,0.589714,-0.164539
2417,3.154824,0.000000,-0.654343
2418,3.024542,0.000000,-0.651588
2419,3.053291,0.083937,-0.646871
2420,3.133070,0.126153,-0.641731
2421,3.089683,0.000000,-0.652965
2422,3.038916,0.041969,-0.649229
2423,3.093180,0.105045,-0.644301
2424,3.143947,0.063077,-0.648037
2425,3.002600,0.126183,-0.638840
2426,2.948285,0.063092,-0.643608
2427,3.027945,0.105060,-0.642856
2428,2.959256,0.000000,-0.649982
2429,3.111812,0.247562,-0.604884
2430,3.122441,0.186858,-0.623307
2431,3.057206,0.186873,-0.621862
2432,3.174398,0.563278,-0.333733
2433,3.265559,0.580525,-0.306374
2434,3.192310,0.527174,-0.383795
2435,3.219979,0.571901,-0.320054
2436,3.297241,0.569449,-0.326671
2437,3.293464,0.613052,-0.236122
2438,3.216243,0.614245,-0.228910
2439,3.279512,0.596788,-0.271248
2440,3.156710,0.589358,-0.277716
2441,3.370692,0.611483,-0.243189
2442,0.666507,0.279773,-0.290539
2443,0.687556,0.220066,-0.345759
2444,0.629104,0.230184,-0.316609
2445,0.590541,0.263028,-0.272041
2446,0.677032,0.249920,-0.318149
2447,0.658330,0.225125,-0.331184
2448,0.609823,0.246606,-0.294325
2449,0.628524,0.271401,-0.281290
2450,0.611268,0.203156,-0.327684
2451,0.662144,0.177821,-0.358164
2452,0.620186,0.216670,-0.322147
2453,0.700288,0.186277,-0.367201
2454,0.553015,0.253741,-0.261846
2455,0.563378,0.223805,-0.289668
2456,0.615311,0.077849,-0.379067
2457,0.577723,0.138721,-0.347377
2458,0.664165,0.115168,-0.383855
2459,0.596517,0.108285,-0.363222
2460,0.594496,0.170938,-0.337530
2461,0.522961,0.000000,-0.353795
2462,0.510396,0.130668,-0.323584
2463,0.516678,0.065334,-0.338690
2464,0.544059,0.134695,-0.335481
2465,0.569136,0.038925,-0.366431
2466,0.512942,0.187561,-0.287618
2467,3.983186,0.472040,-0.467144
2468,3.990899,0.527990,-0.402977
2469,4.025206,0.446004,-0.491128
2470,3.987042,0.500015,-0.435061
2471,4.013830,0.530313,-0.400126
2472,3.899194,0.518730,-0.413852
2473,3.952815,0.571596,-0.338001
2474,3.926004,0.545163,-0.375927
2475,3.971857,0.549793,-0.370489
2476,3.941190,0.495385,-0.440498
2477,3.979667,0.592483,-0.296787
2478,3.881415,0.583231,-0.316546
2479,3.818878,0.565661,-0.345975
2480,3.876998,0.595981,-0.290374
2481,3.850146,0.574446,-0.331261
2482,3.778761,0.584715,-0.309332
2483,3.917115,0.577413,-0.327274
2484,3.859036,0.542195,-0.379914
2485,3.911147,0.448568,-0.489098
2486,3.914156,0.429015,-0.505732
2487,3.947167,0.460304,-0.478121
2488,3.833109,0.462342,-0.475293
2489,3.800108,0.430496,-0.502261
2490,3.872128,0.455455,-0.482196
2491,3.866151,0.490536,-0.444573
2492,3.801536,0.517782,-0.413848
2493,3.810207,0.541721,-0.379912
2494,3.777115,0.517524,-0.413836
2495,3.817323,0.490062,-0.444570
2496,1.504716,0.103397,-0.554949
2497,1.544187,0.068795,-0.564716
2498,1.501652,0.000000,-0.564064
2499,1.443698,0.051699,-0.552217
2500,1.524451,0.086096,-0.559832
2501,1.522919,0.034397,-0.564390
2502,1.442166,0.000000,-0.556775
2503,1.584831,0.086015,-0.566446
2504,1.566867,0.153291,-0.547951
2505,1.562722,0.000000,-0.570645
2506,2.575915,0.155198,-0.619259
2507,2.547246,0.229346,-0.594614
2508,2.620357,0.138900,-0.624502
2509,2.561581,0.192272,-0.606936
2510,2.621655,0.235023,-0.595227
2511,2.545957,0.132876,-0.622819
2512,2.472857,0.223475,-0.593499
2513,2.249187,0.000000,-0.623667
2514,2.298928,0.073587,-0.621943
2515,2.313322,0.000000,-0.626840
2516,2.274058,0.036794,-0.622805
2517,2.343222,0.092045,-0.621374
2518,2.279371,0.092090,-0.618192
2519,2.185704,0.000000,-0.620083
2520,2.470415,0.629708,-0.075013
2521,2.487830,0.632624,-0.037506
2522,2.429495,0.625086,-0.093849
2523,2.493738,0.627872,-0.093875
2524,2.201455,0.603083,-0.148918
2525,2.241826,0.583196,-0.220215
2526,2.151747,0.604183,-0.129911
2527,2.221640,0.593139,-0.184566
2528,2.162465,0.578671,-0.219195
2529,2.231163,0.608592,-0.130848
2530,2.321224,0.587069,-0.220988
2531,0.224893,0.174265,-0.105301
2532,0.238732,0.186848,-0.100821
2533,0.207070,0.171053,-0.083715
2534,0.238387,0.149509,-0.150874
2535,0.271639,0.162798,-0.165885
2536,0.231640,0.161887,-0.128087
2537,0.206498,0.134735,-0.134363
2538,0.225037,0.104231,-0.175020
2539,0.206994,0.083814,-0.171079
2540,0.239064,0.098818,-0.188103
2541,0.231712,0.126870,-0.162947
2542,1.542359,0.564560,-0.068411
2543,1.501973,0.554736,-0.102816
2544,1.522006,0.564312,-0.034206
2545,1.522166,0.559648,-0.085614
2546,1.442326,0.552111,-0.051408
2547,1.582543,0.566278,-0.085537
2548,1.562741,0.547755,-0.152452
2549,0.858616,0.134478,-0.435765
2550,0.932509,0.124021,-0.456454
2551,0.837958,0.106145,-0.437370
2552,0.895563,0.129250,-0.446109
2553,0.929334,0.062011,-0.463985
2554,0.828568,0.197597,-0.402775
2555,0.770794,0.175042,-0.395709
2556,0.843592,0.166037,-0.419270
2557,0.945770,0.239781,-0.410960
2558,0.939140,0.181901,-0.433707
2559,0.887169,0.218689,-0.406868
2560,1.063848,0.494861,-0.068364
2561,1.021776,0.480662,-0.102762
2562,1.049481,0.494452,-0.034182
2563,1.042812,0.487761,-0.085563
2564,0.973967,0.476088,-0.051381
2565,1.133722,0.501768,-0.102560
2566,1.141534,0.508249,-0.051280
2567,1.098785,0.498314,-0.085462
2568,1.071703,0.474702,-0.151899
2569,1.127676,0.485255,-0.151798
2570,3.601527,0.379681,-0.541046
2571,3.518722,0.369730,-0.546745
2572,3.622087,0.409670,-0.517550
2573,3.560124,0.374705,-0.543896
2574,3.518479,0.423663,-0.501089
2575,3.643282,0.324711,-0.576321
2576,3.705194,0.361680,-0.552775
2577,3.622404,0.352196,-0.558684
2578,3.519150,0.307330,-0.579910
2579,3.581430,0.284820,-0.594698
2580,1.077764,0.271925,-0.422053
2581,1.013017,0.302000,-0.385414
2582,1.110989,0.279580,-0.424046
2583,1.045391,0.286962,-0.403734
2584,1.047565,0.330238,-0.368983
2585,1.077221,0.223567,-0.449508
2586,1.143463,0.214210,-0.466276
2587,1.077493,0.247746,-0.435781
2588,0.979394,0.270890,-0.398187
2589,1.011496,0.231674,-0.430234
2590,1.465181,0.328388,-0.453278
2591,1.406631,0.348756,-0.428498
2592,1.406124,0.394215,-0.386963
2593,1.493585,0.365442,-0.425794
2594,1.435906,0.338572,-0.440888
2595,1.406378,0.371485,-0.407731
2596,1.464057,0.398356,-0.392637
2597,1.410217,0.245207,-0.495752
2598,1.349282,0.319571,-0.441457
2599,1.379749,0.282389,-0.468605
2600,1.377956,0.334163,-0.434977
2601,1.437699,0.286797,-0.474515
2602,1.348308,0.389421,-0.380649
2603,1.319887,0.352099,-0.407896
2604,1.302253,0.282723,-0.458308
2605,1.309820,0.225447,-0.490301
2606,1.275393,0.291665,-0.447754
2607,1.306036,0.254085,-0.474304
2608,1.259762,0.215150,-0.486672
2609,1.325767,0.301147,-0.449883
2610,1.360018,0.235327,-0.493026
2611,1.519285,0.288723,-0.486904
2612,1.546690,0.299377,-0.483827
2613,1.492233,0.308555,-0.470091
2614,1.519459,0.224758,-0.519648
2615,1.574239,0.213972,-0.530301
2616,1.519372,0.256741,-0.503276
2617,1.464838,0.234983,-0.507700
2618,2.038815,0.432399,-0.431871
2619,1.949567,0.481684,-0.366125
2620,1.993702,0.517538,-0.319482
2621,2.060092,0.514606,-0.332362
2622,1.994191,0.457041,-0.398998
2623,1.971634,0.499611,-0.342803
2624,2.026897,0.516072,-0.325922
2625,2.049453,0.473502,-0.382117
2626,1.861160,0.521671,-0.293297
2627,1.971982,0.549834,-0.256637
2628,1.916571,0.535753,-0.274967
2629,1.982842,0.533686,-0.288059
2630,1.905363,0.501678,-0.329711
2631,2.071598,0.544376,-0.275268
2632,2.027543,0.561990,-0.237406
2633,1.950378,0.366968,-0.481115
2634,1.919821,0.426644,-0.425874
2635,1.994596,0.399683,-0.456493
2636,1.935099,0.396806,-0.453494
2637,1.934694,0.454164,-0.395999
2638,1.862776,0.294493,-0.521141
2639,1.860251,0.423482,-0.422587
2640,1.861514,0.358988,-0.471864
2641,1.890036,0.425063,-0.424230
2642,1.906577,0.330730,-0.501128
2643,1.860706,0.472577,-0.357942
2644,1.742121,0.533395,-0.248708
2645,1.731797,0.500432,-0.307815
2646,1.682816,0.537084,-0.225398
2647,1.736959,0.516914,-0.278262
2648,1.699456,0.494656,-0.311316
2649,1.786726,0.472810,-0.356705
2650,1.823943,0.497241,-0.325001
2651,1.759261,0.486621,-0.332260
2652,1.801641,0.527533,-0.271002
2653,1.749986,0.443905,-0.385027
2654,0.648182,0.051796,-0.394304
2655,0.614977,0.000000,-0.386804
2656,0.631747,0.064823,-0.386685
2657,0.631580,0.025898,-0.390554
2658,0.568969,0.000000,-0.370300
2659,0.680297,0.064643,-0.402174
2660,0.665353,0.000000,-0.402505
2661,0.617684,0.303597,-0.241043
2662,0.670153,0.330545,-0.233178
2663,0.604113,0.283313,-0.256542
2664,0.643919,0.317071,-0.237111
2665,0.668330,0.305159,-0.261859
2666,0.605912,0.308590,-0.227567
2667,0.674009,0.350562,-0.200702
2668,0.635992,0.389576,-0.057350
2669,0.625484,0.388190,-0.028675
2670,0.616647,0.380292,-0.071753
2671,0.694204,0.402874,-0.085916
2672,0.704967,0.410540,-0.042958
2673,0.665098,0.396225,-0.071633
2674,0.686034,0.386727,-0.127071
2675,4.930270,0.486755,-0.455340
2676,4.865593,0.518416,-0.418949
2677,4.965135,0.511318,-0.425894
2678,4.897932,0.502586,-0.437145
2679,4.866858,0.536861,-0.393860
2680,4.798388,0.509189,-0.430050
2681,4.829465,0.470206,-0.469143
2682,4.831991,0.513803,-0.424500
2683,4.895406,0.458989,-0.481788
2684,4.767317,0.541225,-0.385083
2685,4.770746,0.453841,-0.488058
2686,4.748295,0.459507,-0.482637
2687,4.779378,0.416956,-0.517812
2688,4.784567,0.481515,-0.459054
2689,5.000000,0.471312,-0.471312
2690,4.953513,0.458195,-0.484072
2691,5.000000,0.503596,-0.433880
2692,4.976757,0.464754,-0.477692
2693,4.941892,0.472475,-0.469706
2694,5.000000,0.396449,-0.535881
2695,4.930271,0.414069,-0.522352
2696,4.965135,0.405259,-0.529116
2697,4.941892,0.436132,-0.503212
2698,5.000000,0.433880,-0.503596
2699,4.895406,0.422646,-0.515294
2700,5.000000,0.312796,-0.588773
2701,4.953513,0.354565,-0.564532
2702,5.000000,0.354622,-0.562327
2703,4.976756,0.333680,-0.576653
2704,4.941892,0.384317,-0.543442
2705,4.941891,0.343524,-0.571188
2706,5.000000,0.267793,-0.608622
2707,3.972857,0.109524,-0.655175
2708,4.050830,0.072904,-0.660672
2709,4.074765,0.000000,-0.664760
2710,3.958207,0.054762,-0.659584
2711,4.011844,0.091214,-0.657924
2712,4.062797,0.036452,-0.662716
2713,4.009161,0.000000,-0.664376
2714,4.104487,0.109531,-0.655915
2715,4.053379,0.162795,-0.642146
2716,4.077659,0.091218,-0.658294
2717,3.987564,0.162791,-0.641776
2718,4.140780,0.000000,-0.665064
2719,4.155641,0.054765,-0.660641
2720,1.811173,0.420802,-0.419648
2721,1.787527,0.358189,-0.471771
2722,1.798949,0.446806,-0.388177
2723,1.799350,0.389496,-0.445710
2724,1.750387,0.386594,-0.442559
2725,1.835712,0.422142,-0.421117
2726,1.825152,0.326341,-0.496456
2727,1.734166,0.309197,-0.499828
2728,1.745685,0.249855,-0.533208
2729,1.702013,0.312745,-0.494033
2730,1.739925,0.279526,-0.516518
2731,1.687352,0.226520,-0.537081
2732,1.760846,0.333693,-0.485800
2733,1.804231,0.272174,-0.527175
2734,2.060076,0.332593,-0.514455
2735,1.994231,0.320028,-0.517242
2736,2.049445,0.382496,-0.473163
2737,2.027153,0.326310,-0.515849
2738,1.972305,0.343498,-0.499178
2739,1.972777,0.257167,-0.549648
2740,2.027931,0.237579,-0.561931
2741,1.983504,0.288597,-0.533445
2742,2.071580,0.275292,-0.544334
2743,1.917777,0.275830,-0.535394
2744,4.179353,0.339466,-0.572123
2745,4.120308,0.299441,-0.593815
2746,4.123289,0.379717,-0.543617
2747,4.149831,0.319453,-0.582969
2748,4.077499,0.311244,-0.587291
2749,4.146905,0.233872,-0.622763
2750,4.219224,0.242654,-0.619623
2751,4.133607,0.266656,-0.608289
2752,4.235448,0.295450,-0.594303
2753,4.074588,0.224965,-0.625570
2754,4.166827,0.158154,-0.646251
2755,4.135657,0.133842,-0.651083
2756,4.207975,0.143133,-0.649720
2757,4.156866,0.196013,-0.634507
2758,0.099636,0.100436,-0.035448
2759,0.080981,0.085873,-0.023660
2760,0.107559,0.110507,-0.017724
2761,0.090309,0.093154,-0.029554
2762,0.078083,0.084656,-0.011830
2763,0.091666,0.072129,-0.068012
2764,0.066227,0.065646,-0.035364
2765,0.078947,0.068887,-0.051688
2766,0.073604,0.075759,-0.029512
2767,0.095651,0.086282,-0.051730
2768,0.056380,0.059890,-0.017682
2769,0.055914,0.046008,-0.044509
2770,0.065837,0.037717,-0.063863
2771,0.047251,0.039091,-0.038342
2772,0.060875,0.041862,-0.054186
2773,0.056185,0.018858,-0.058998
2774,0.061071,0.055827,-0.039937
2775,0.078751,0.054923,-0.065938
2776,0.080508,0.025243,-0.084946
2777,0.075185,0.000000,-0.083439
2778,0.073172,0.031480,-0.074405
2779,0.077846,0.012621,-0.084193
2780,0.060859,0.000000,-0.068786
2781,0.099025,0.037851,-0.098958
2782,0.095345,0.054990,-0.083485
2783,0.089766,0.031547,-0.091952
2784,0.095333,0.000000,-0.102009
2785,0.107253,0.018925,-0.109769
2786,1.505897,0.519590,-0.220995
2787,1.463618,0.539268,-0.149899
2788,1.564704,0.530181,-0.211541
2789,1.484758,0.529429,-0.185447
2790,1.482795,0.547002,-0.126357
2791,1.388608,0.495806,-0.238793
2792,1.383866,0.535933,-0.122424
2793,1.386237,0.515869,-0.180608
2794,1.423742,0.537600,-0.136161
2795,1.447252,0.507698,-0.229894
2796,1.383273,0.542709,-0.061212
2797,1.254880,0.483721,-0.220576
2798,1.265733,0.456504,-0.275490
2799,1.188255,0.476232,-0.210805
2800,1.260307,0.470113,-0.248033
2801,1.235169,0.445386,-0.284150
2802,1.338578,0.446035,-0.310625
2803,1.363593,0.470920,-0.274709
2804,1.302156,0.451269,-0.293057
2805,1.321744,0.489764,-0.229684
2806,1.314535,0.415331,-0.342479
2807,1.937271,0.578574,-0.174585
2808,1.954627,0.564204,-0.215611
2809,1.956711,0.587718,-0.142779
2810,1.864371,0.579314,-0.151582
2811,1.862766,0.550493,-0.222439
2812,1.900821,0.578944,-0.163084
2813,1.867510,0.589255,-0.075791
2814,1.783889,0.567538,-0.169200
2815,1.765039,0.573702,-0.135993
2816,1.763005,0.550467,-0.208954
2817,1.824130,0.573426,-0.160391
2818,3.879432,0.204770,-0.631300
2819,3.841927,0.272762,-0.604682
2820,3.940851,0.210414,-0.629838
2821,3.860679,0.238766,-0.617991
2822,3.863278,0.292004,-0.595396
2823,3.761763,0.300608,-0.590557
2824,3.759179,0.246986,-0.612208
2825,3.801845,0.286685,-0.597620
2826,3.818013,0.199067,-0.632579
2827,3.764435,0.349629,-0.559893
2828,3.681020,0.282162,-0.598787
2829,3.638080,0.219376,-0.624120
2830,3.662151,0.303436,-0.587554
2831,3.659550,0.250769,-0.611453
2832,3.578829,0.232152,-0.618597
2833,3.721392,0.291385,-0.594672
2834,3.697337,0.206370,-0.628989
2835,3.900756,0.138006,-0.649309
2836,3.936807,0.123765,-0.652242
2837,3.890094,0.171388,-0.640304
2838,3.875388,0.117880,-0.652737
2839,3.651836,0.148077,-0.644906
2840,3.644958,0.183727,-0.634513
2841,3.625648,0.136397,-0.647074
2842,3.684934,0.122912,-0.649973
2843,0.760768,0.411524,-0.127988
2844,0.786931,0.395400,-0.188308
2845,0.727486,0.407199,-0.106952
2846,0.773849,0.403462,-0.158148
2847,0.732398,0.382990,-0.178267
2848,0.782001,0.420404,-0.117125
2849,0.841998,0.405988,-0.197479
2850,1.009020,0.444144,-0.204528
2851,0.979396,0.462560,-0.138984
2852,1.065325,0.456443,-0.202781
2853,0.994208,0.453352,-0.171756
2854,1.000586,0.471611,-0.120873
2855,0.944167,0.459073,-0.122494
2856,0.953042,0.430360,-0.205588
2857,1.786259,0.170010,-0.567507
2858,1.765972,0.209932,-0.550358
2859,1.767599,0.136682,-0.573760
2860,1.865167,0.152244,-0.579205
2861,1.863971,0.223369,-0.550173
2862,1.825713,0.161127,-0.573356
2863,1.867908,0.076122,-0.589200
2864,1.937797,0.174957,-0.578502
2865,1.956970,0.142917,-0.587690
2866,1.955287,0.216062,-0.564075
2867,1.901482,0.163601,-0.578854
2868,0.871606,0.276609,-0.366280
2869,0.877671,0.331011,-0.319984
2870,0.917217,0.341878,-0.321702
2871,0.908688,0.258195,-0.388620
2872,0.874638,0.303810,-0.343132
2873,0.897444,0.336445,-0.320843
2874,0.931494,0.290830,-0.366331
2875,0.799350,0.308566,-0.315162
2876,0.846663,0.367701,-0.264605
2877,0.823006,0.338133,-0.289883
2878,0.862167,0.349356,-0.292294
2879,0.835478,0.292587,-0.340721
2880,0.907141,0.379227,-0.264176
2881,0.871864,0.392138,-0.235627
2882,0.789597,0.371125,-0.233728
2883,0.736544,0.345527,-0.245942
2884,0.788264,0.383263,-0.211018
2885,0.763070,0.358326,-0.239835
2886,0.707204,0.358053,-0.207084
2887,0.818130,0.369413,-0.249167
2888,0.767947,0.327047,-0.280552
2889,0.712680,0.324692,-0.262060
2890,0.724612,0.335110,-0.254001
2891,0.691417,0.327618,-0.247619
2892,0.732704,0.294720,-0.303417
2893,0.766027,0.301643,-0.309289
2894,0.722692,0.309706,-0.282739
2895,0.699606,0.287247,-0.296978
2896,2.912359,0.282344,-0.584280
2897,2.953185,0.365673,-0.537196
2898,3.005992,0.327654,-0.562726
2899,3.012075,0.265134,-0.594987
2900,2.932772,0.324008,-0.560738
2901,2.979589,0.346663,-0.549961
2902,3.009034,0.296394,-0.578857
2903,2.962217,0.273739,-0.589634
2904,2.994359,0.441070,-0.478488
2905,3.052857,0.349875,-0.550408
2906,3.023608,0.395473,-0.514448
2907,3.029425,0.338765,-0.556567
2908,2.973772,0.403371,-0.507842
2909,3.061944,0.256348,-0.599936
2910,3.082335,0.298719,-0.577646
2911,2.787585,0.454747,-0.457783
2912,2.849725,0.373701,-0.528303
2913,2.798380,0.330989,-0.554417
2914,2.741426,0.354741,-0.537414
2915,2.818655,0.414224,-0.493043
2916,2.824052,0.352345,-0.541360
2917,2.769903,0.342865,-0.545916
2918,2.764506,0.404744,-0.497598
2919,2.804196,0.261744,-0.590558
2920,2.858278,0.272044,-0.587419
2921,2.801288,0.296367,-0.572488
2922,2.881042,0.328022,-0.556291
2923,2.718745,0.297721,-0.566627
2924,2.750130,0.251222,-0.593199
2925,3.097469,0.568098,-0.322384
2926,3.041314,0.597439,-0.261238
2927,3.135934,0.565688,-0.328058
2928,3.069392,0.582768,-0.291811
2929,3.090168,0.606439,-0.241468
2930,3.076840,0.537988,-0.369561
2931,3.143531,0.514529,-0.401709
2932,3.087155,0.553043,-0.345972
2933,2.943677,0.576545,-0.299509
2934,2.992495,0.586992,-0.280374
2935,3.010259,0.557267,-0.334535
2936,2.742634,0.534475,-0.359210
2937,2.809637,0.549562,-0.339594
2938,2.865418,0.521926,-0.383267
2939,2.765110,0.494611,-0.408496
2940,2.776136,0.542019,-0.349402
2941,2.837527,0.535744,-0.361431
2942,2.826502,0.488337,-0.420525
2943,2.821048,0.585760,-0.273441
2944,2.759757,0.589617,-0.260055
2945,2.815342,0.567661,-0.306517
2946,2.720550,0.563975,-0.302940
2947,2.904548,0.549236,-0.341388
2948,2.882362,0.581152,-0.286475
2949,2.833766,0.177897,-0.621910
2950,2.818981,0.219820,-0.606234
2951,2.814213,0.150263,-0.627927
2952,2.902734,0.144832,-0.632347
2953,2.907547,0.213588,-0.608314
2954,2.868250,0.161364,-0.627129
2955,2.898352,0.072416,-0.640362
2956,2.972399,0.180241,-0.625020
2957,2.987499,0.153212,-0.631930
2958,2.992237,0.222687,-0.610004
2959,2.937566,0.162536,-0.628683
2960,2.844971,0.619814,-0.186169
2961,2.820407,0.626587,-0.155982
2962,2.833009,0.602787,-0.229805
2963,2.918344,0.630558,-0.154171
2964,2.906157,0.639467,-0.077085
2965,2.881657,0.625186,-0.170170
2966,2.931010,0.603551,-0.226840
2967,2.991906,0.626323,-0.177379
2968,3.016610,0.611881,-0.219308
2969,3.004086,0.634007,-0.144967
2970,2.955125,0.628440,-0.165775
2971,1.332571,0.153356,-0.520756
2972,1.321195,0.189401,-0.505528
2973,1.313578,0.128974,-0.523988
2974,1.394601,0.125868,-0.536566
2975,1.402409,0.185537,-0.516159
2976,1.363586,0.139612,-0.528661
2977,1.388640,0.062934,-0.543026
2978,1.472628,0.152546,-0.539640
2979,1.488672,0.127972,-0.547294
2980,1.496043,0.188652,-0.529644
2981,1.433615,0.139207,-0.538103
2982,2.382084,0.443677,-0.447414
2983,2.473888,0.444601,-0.452160
2984,2.448208,0.376419,-0.509030
2985,2.389618,0.338391,-0.532053
2986,2.427986,0.444139,-0.449787
2987,2.461048,0.410510,-0.480595
2988,2.418913,0.357405,-0.520542
2989,2.385851,0.391034,-0.489734
2990,2.565708,0.445257,-0.456632
2991,2.481504,0.338976,-0.536418
2992,2.523606,0.392116,-0.496525
2993,2.464856,0.357698,-0.522724
2994,2.519798,0.444929,-0.454396
2995,2.394044,0.277997,-0.562219
2996,2.439987,0.278290,-0.564401
2997,2.552957,0.306921,-0.558693
2998,2.630458,0.349601,-0.536370
2999,2.550102,0.268133,-0.576653
3000,2.591708,0.328261,-0.547531
3001,2.663261,0.295151,-0.566105
3002,2.517231,0.322948,-0.547555
3003,2.598083,0.397429,-0.496501
3004,2.682748,0.386942,-0.512281
3005,2.656603,0.368271,-0.524325
3006,2.712087,0.370841,-0.524848
3007,2.676639,0.450164,-0.457372
3008,2.621174,0.447710,-0.457002
3009,2.679693,0.418553,-0.484827
3010,2.732112,0.452455,-0.457577
3011,2.631626,0.530169,-0.358984
3012,2.554439,0.554393,-0.314713
3013,2.665046,0.561822,-0.302827
3014,2.593032,0.542281,-0.336849
3015,2.551981,0.573558,-0.274566
3016,2.482531,0.530905,-0.347603
3017,2.524119,0.488081,-0.402117
3018,2.518485,0.542649,-0.331158
3019,2.598667,0.487713,-0.407808
3020,2.441576,0.560924,-0.284682
3021,2.390692,0.529480,-0.342481
3022,2.448901,0.503871,-0.383333
3023,2.386388,0.486579,-0.394948
3024,2.419796,0.516676,-0.362907
3025,2.461394,0.474236,-0.417746
3026,2.465716,0.517388,-0.365468
3027,2.395657,0.560212,-0.282121
3028,2.683538,0.506851,-0.394058
3029,2.713086,0.520663,-0.376634
3030,2.657582,0.518510,-0.376521
3031,2.680088,0.478508,-0.425715
3032,2.305151,0.477034,-0.406025
3033,2.336574,0.522064,-0.349117
3034,2.343618,0.460355,-0.426720
3035,2.320863,0.499549,-0.377571
3036,2.363633,0.525772,-0.345799
3037,2.228457,0.506751,-0.361534
3038,2.314268,0.553705,-0.294237
3039,2.271363,0.530228,-0.327885
3040,2.325421,0.537885,-0.321677
3041,2.266804,0.491893,-0.383779
3042,2.357445,0.572324,-0.257999
3043,2.237122,0.561861,-0.269359
3044,2.155476,0.545055,-0.292332
3045,2.239474,0.572529,-0.244787
3046,2.196299,0.553458,-0.280846
3047,2.119290,0.559600,-0.255253
3048,2.275695,0.557783,-0.281798
3049,2.191967,0.525903,-0.326933
3050,2.304945,0.403541,-0.479126
3051,2.279225,0.441105,-0.442928
3052,2.343515,0.423609,-0.463270
3053,2.292085,0.422323,-0.461027
3054,2.292188,0.459069,-0.424477
3055,2.228029,0.360536,-0.507435
3056,2.227782,0.439678,-0.440531
3057,2.227905,0.400107,-0.473983
3058,2.253503,0.440391,-0.441730
3059,2.266487,0.382038,-0.493281
3060,2.228120,0.473215,-0.401032
3061,2.116226,0.512192,-0.342394
3062,2.135851,0.528623,-0.317363
3063,2.088159,0.513399,-0.337378
3064,2.133496,0.471373,-0.398223
3065,2.180977,0.489062,-0.379879
3066,2.124861,0.491782,-0.370309
3067,2.086155,0.451886,-0.415047
3068,2.164758,0.437423,-0.437812
3069,2.133277,0.398038,-0.471512
3070,2.149127,0.454398,-0.418018
3071,2.149018,0.417731,-0.454662
3072,2.086046,0.415219,-0.451692
3073,2.196270,0.438551,-0.439171
3074,2.180653,0.379287,-0.489474
3075,2.116073,0.342201,-0.512310
3076,2.155256,0.291706,-0.545377
3077,2.088075,0.337397,-0.513382
3078,2.135664,0.316953,-0.528843
3079,2.119170,0.254849,-0.559795
3080,2.124675,0.370120,-0.491911
3081,2.191642,0.326121,-0.526406
3082,2.335714,0.346091,-0.524030
3083,2.362666,0.342241,-0.528042
3084,2.320330,0.374816,-0.501578
3085,2.312967,0.291732,-0.554960
3086,2.355718,0.254668,-0.573672
3087,2.324340,0.318912,-0.539495
3088,2.270498,0.326134,-0.531198
3089,2.236252,0.267592,-0.562656
3090,2.195754,0.279649,-0.554016
3091,2.238496,0.242817,-0.573304
3092,2.274609,0.279662,-0.558808
3093,1.399464,0.433150,-0.341495
3094,1.369021,0.439592,-0.326060
3095,1.402794,0.413683,-0.364229
3096,1.454357,0.455501,-0.323065
3097,1.421482,0.475653,-0.280929
3098,1.426910,0.444325,-0.332280
3099,1.488173,0.428999,-0.360688
3100,1.510258,0.488115,-0.284657
3101,1.540827,0.485225,-0.295843
3102,1.508078,0.503852,-0.252826
3103,1.482308,0.471808,-0.303861
3104,1.320413,0.537950,-0.058416
3105,1.263191,0.531411,-0.038950
3106,1.351546,0.543718,-0.029208
3107,1.291802,0.534681,-0.048683
3108,1.263674,0.532186,-0.019475
3109,1.259121,0.519488,-0.116087
3110,1.203701,0.520428,-0.058412
3111,1.231411,0.519958,-0.087250
3112,1.233446,0.525920,-0.048681
3113,1.289767,0.528719,-0.087251
3114,1.176523,0.517579,-0.029206
3115,1.175521,0.507999,-0.107182
3116,1.189952,0.496608,-0.159361
3117,1.154621,0.504883,-0.104871
3118,1.182736,0.502303,-0.133271
3119,1.155791,0.482675,-0.180198
3120,1.189611,0.514213,-0.082797
3121,1.224537,0.508048,-0.137724
3122,1.342195,0.530701,-0.120353
3123,1.363030,0.533317,-0.121388
3124,1.331304,0.534325,-0.089384
3125,1.323332,0.511251,-0.178701
3126,1.355970,0.503528,-0.208747
3127,1.332764,0.520976,-0.149527
3128,1.291227,0.515369,-0.147394
3129,1.255916,0.498027,-0.186561
3130,1.222934,0.497317,-0.172961
3131,1.255398,0.490874,-0.203568
3132,1.289624,0.504639,-0.182631
3133,0.462965,0.185502,-0.272393
3134,0.408900,0.184100,-0.243895
3135,0.408465,0.212858,-0.218935
3136,0.489226,0.214978,-0.262022
3137,0.435932,0.184801,-0.258144
3138,0.408682,0.198479,-0.231415
3139,0.461977,0.228656,-0.235293
3140,0.415088,0.120364,-0.284071
3141,0.357492,0.150869,-0.236618
3142,0.386290,0.135616,-0.260344
3143,0.383196,0.167484,-0.240256
3144,0.439026,0.152933,-0.278232
3145,0.356677,0.194472,-0.199915
3146,0.331191,0.163477,-0.208757
3147,0.352192,0.102937,-0.258208
3148,0.381928,0.061243,-0.286370
3149,0.336568,0.098239,-0.251166
3150,0.367060,0.082090,-0.272289
3151,0.367827,0.030622,-0.282540
3152,0.354842,0.126903,-0.247413
3153,0.398508,0.090803,-0.285220
3154,0.478109,0.127498,-0.310839
3155,0.494252,0.129083,-0.317212
3156,0.470537,0.156500,-0.291616
3157,0.466295,0.061378,-0.325300
3158,0.494628,0.030689,-0.339548
3159,0.472202,0.094438,-0.318070
3160,0.440692,0.090871,-0.304686
3161,0.427832,0.040915,-0.311616
3162,0.432493,0.000000,-0.316346
3163,0.404880,0.051079,-0.298993
3164,0.430163,0.020457,-0.313981
3165,0.393109,0.000000,-0.297529
3166,0.447064,0.051146,-0.318458
3167,0.477727,0.000000,-0.335070
3168,0.381278,0.285668,-0.062989
3169,0.351484,0.256552,-0.106041
3170,0.367502,0.282189,-0.031495
3171,0.366381,0.271110,-0.084515
3172,0.335924,0.249586,-0.101278
3173,0.414068,0.282131,-0.123671
3174,0.356839,0.233421,-0.155157
3175,0.385454,0.257776,-0.139414
3176,0.354162,0.244987,-0.130599
3177,0.397673,0.283900,-0.093330
3178,0.330864,0.204754,-0.168026
3179,0.408408,0.239410,-0.189518
3180,0.462265,0.268116,-0.191108
3181,0.408437,0.226134,-0.204227
3182,0.435337,0.253763,-0.190313
3183,0.488877,0.256285,-0.221379
3184,0.382624,0.236416,-0.172338
3185,0.438167,0.275124,-0.157389
3186,0.427362,0.311249,-0.042078
3187,0.429927,0.313797,-0.021039
3188,0.404320,0.298458,-0.052534
3189,0.465630,0.324679,-0.063136
3190,0.494295,0.339237,-0.031568
3191,0.446496,0.317964,-0.052607
3192,0.439849,0.303405,-0.093404
3193,0.477298,0.308740,-0.131638
3194,0.469781,0.288428,-0.161373
3195,0.493510,0.315078,-0.133432
3196,0.471464,0.316710,-0.097387
3197,3.268088,0.424396,-0.500619
3198,3.215860,0.369142,-0.541609
3199,3.160684,0.379242,-0.533296
3200,3.239154,0.457733,-0.467237
3201,3.241974,0.396769,-0.521114
3202,3.188272,0.374192,-0.537453
3203,3.185453,0.435157,-0.483576
3204,3.326185,0.348969,-0.557070
3205,3.218953,0.299424,-0.583228
3206,3.272569,0.324197,-0.570149
3207,3.217406,0.334283,-0.562418
3208,3.297136,0.386682,-0.528845
3209,3.136248,0.313402,-0.569090
3210,3.165382,0.273493,-0.594056
3211,3.408938,0.202647,-0.626797
3212,3.381287,0.253232,-0.607659
3213,3.422844,0.298194,-0.587520
3214,3.464259,0.223788,-0.619936
3215,3.395113,0.227939,-0.617228
3216,3.402065,0.275713,-0.597589
3217,3.471211,0.271562,-0.600297
3218,3.298344,0.159362,-0.637422
3219,3.312133,0.257368,-0.604754
3220,3.305238,0.208365,-0.621088
3221,3.346710,0.255300,-0.606206
3222,3.353641,0.181004,-0.632110
3223,3.374514,0.323582,-0.572295
3224,3.319159,0.303168,-0.580912
3225,3.351464,0.442885,-0.486150
3226,3.357844,0.463737,-0.465514
3227,3.309776,0.433641,-0.493384
3228,3.422138,0.416556,-0.510256
3229,3.470187,0.447075,-0.482844
3230,3.386801,0.429721,-0.498203
3231,3.374162,0.382762,-0.533663
3232,3.454530,0.362801,-0.550388
3233,3.438687,0.330498,-0.568954
3234,3.486626,0.366266,-0.548567
3235,3.438334,0.389678,-0.530322
3236,3.102269,0.466780,-0.456867
3237,3.049264,0.508350,-0.408340
3238,3.156245,0.478925,-0.445361
3239,3.075766,0.487565,-0.432603
3240,3.063052,0.523169,-0.388950
3241,2.968782,0.516521,-0.394907
3242,2.981570,0.478795,-0.436697
3243,3.009023,0.512435,-0.401623
3244,3.048314,0.453925,-0.467677
3245,2.956229,0.546533,-0.347208
3246,2.908335,0.496834,-0.417008
3247,2.890965,0.448096,-0.468332
3248,2.886876,0.509380,-0.400138
3249,2.899650,0.472465,-0.442670
3250,2.839275,0.451422,-0.463057
3251,2.938558,0.506677,-0.405957
3252,2.942662,0.444583,-0.473410
3253,3.105202,0.400990,-0.515699
3254,3.132943,0.390116,-0.524498
3255,3.103736,0.433885,-0.486283
3256,3.079030,0.375433,-0.533053
3257,2.897911,0.397135,-0.512537
3258,2.894438,0.422615,-0.490434
3259,2.873818,0.385418,-0.520420
3260,2.925548,0.381404,-0.524866
3261,0.122595,0.108912,-0.064751
3262,0.131025,0.117666,-0.063350
3263,0.111116,0.104674,-0.050100
3264,0.132202,0.096853,-0.093715
3265,0.153405,0.108407,-0.105784
3266,0.127398,0.102882,-0.079233
3267,0.111934,0.084491,-0.080863
3268,0.122254,0.067145,-0.107104
3269,0.110639,0.052498,-0.103031
3270,0.130737,0.065170,-0.116345
3271,0.127228,0.081999,-0.100409
3272,0.817631,0.237293,-0.377429
3273,0.823099,0.217445,-0.390102
3274,0.844618,0.256951,-0.371854
3275,0.753901,0.235077,-0.358831
3276,0.733460,0.193782,-0.373737
3277,0.785766,0.236185,-0.368130
3278,0.776625,0.271821,-0.336996
3279,0.724206,0.251294,-0.337277
3280,0.728455,0.273007,-0.320347
3281,0.705881,0.235680,-0.341518
3282,0.739053,0.243185,-0.348054
3283,1.032136,0.421032,-0.257356
3284,1.066244,0.420841,-0.269436
3285,1.020578,0.432588,-0.230942
3286,0.988198,0.393029,-0.283580
3287,1.035155,0.375753,-0.318066
3288,1.010167,0.407031,-0.270468
3289,0.942631,0.404802,-0.245115
3290,0.972203,0.347904,-0.332593
3291,0.944710,0.344891,-0.327148
3292,0.992610,0.324952,-0.359004
3293,0.980200,0.370467,-0.308087
3294,3.214018,0.631974,-0.174368
3295,3.291968,0.625733,-0.200077
3296,3.176520,0.623706,-0.198033
3297,3.252993,0.628853,-0.187222
3298,3.292716,0.619393,-0.218100
3299,3.289088,0.644674,-0.125981
3300,3.368455,0.630412,-0.189054
3301,3.328772,0.637543,-0.157517
3302,3.330212,0.628073,-0.194565
3303,3.251553,0.638324,-0.150174
3304,3.408188,0.620163,-0.219655
3305,3.384520,0.645992,-0.127022
3306,3.352958,0.654774,-0.063284
3307,3.408385,0.646288,-0.127280
3308,3.368739,0.650383,-0.095153
3309,3.384940,0.656750,-0.031642
3310,3.376488,0.638202,-0.158038
3311,3.321023,0.649724,-0.094632
3312,3.194188,0.644646,-0.117066
3313,3.170459,0.644585,-0.114794
3314,3.204103,0.638310,-0.145717
3315,3.221900,0.652582,-0.063285
3316,3.188362,0.653463,-0.031643
3317,3.208044,0.648614,-0.090176
3318,3.255494,0.648628,-0.094633
3319,3.286898,0.655395,-0.042172
3320,3.319928,0.655085,-0.052728
3321,3.286160,0.656050,-0.021086
3322,3.254399,0.653989,-0.052729
3323,3.205045,0.204022,-0.622860
3324,3.188167,0.137417,-0.640517
3325,3.158428,0.225792,-0.613872
3326,3.196606,0.170719,-0.631689
3327,3.160619,0.131785,-0.641124
3328,3.226495,0.080284,-0.650810
3329,3.262419,0.119823,-0.644116
3330,3.207331,0.108850,-0.645664
3331,3.251694,0.181692,-0.630141
3332,3.190659,0.040142,-0.652577
3333,3.285421,0.000000,-0.656705
3334,3.289956,0.053481,-0.654630
3335,3.357558,0.080281,-0.652997
3336,3.351172,0.000000,-0.657716
3337,3.287688,0.026741,-0.655668
3338,3.323757,0.066881,-0.653814
3339,3.387240,0.040141,-0.655862
3340,3.258225,0.066883,-0.652720
3341,3.220123,0.000000,-0.655524
3342,3.327951,0.119822,-0.645210
3343,3.245350,0.254119,-0.604910
3344,3.232151,0.276772,-0.594069
3345,3.225197,0.229071,-0.613885
3346,3.278741,0.255744,-0.604832
3347,3.411498,0.136465,-0.644469
3348,3.384528,0.108373,-0.648733
3349,3.439796,0.130589,-0.646048
3350,3.410218,0.169556,-0.635633
3351,1.100920,0.060862,-0.502667
3352,1.136397,0.110106,-0.500643
3353,1.125133,0.030431,-0.508698
3354,1.118659,0.085484,-0.501655
3355,1.157119,0.107295,-0.504795
3356,1.053893,0.120793,-0.482849
3357,1.131434,0.163497,-0.484943
3358,1.092664,0.142145,-0.483896
3359,1.133916,0.136802,-0.492793
3360,1.077406,0.090828,-0.492758
3361,1.170569,0.184175,-0.483993
3362,1.068971,0.190151,-0.463019
3363,0.998812,0.182178,-0.451581
3364,1.073096,0.206859,-0.456264
3365,1.033892,0.186164,-0.457300
3366,0.972291,0.210979,-0.431270
3367,1.100203,0.176824,-0.473981
3368,1.026353,0.151486,-0.467215
3369,1.035114,0.000000,-0.494043
3370,1.042344,0.040597,-0.493793
3371,1.092230,0.000000,-0.504386
3372,1.038729,0.020299,-0.493918
3373,1.071632,0.050730,-0.498230
3374,0.989214,0.060891,-0.481120
3375,0.957686,0.030445,-0.476317
3376,1.015779,0.050744,-0.487456
3377,0.980636,0.000000,-0.482779
3378,1.021554,0.090842,-0.481984
3379,0.972992,0.122983,-0.465690
3380,0.985902,0.152580,-0.458636
3381,0.952751,0.123502,-0.461072
3382,0.981103,0.091937,-0.473405
3383,4.267042,0.564853,-0.352043
3384,4.225622,0.532537,-0.398883
3385,4.264543,0.583538,-0.317814
3386,4.246332,0.548695,-0.375463
3387,4.199893,0.559363,-0.356733
3388,4.290266,0.558940,-0.361310
3389,4.251380,0.499731,-0.436545
3390,4.172802,0.498025,-0.440834
3391,4.172179,0.443962,-0.495233
3392,4.146718,0.505494,-0.431921
3393,4.172490,0.470994,-0.468033
3394,4.119702,0.431965,-0.505172
3395,4.199212,0.515281,-0.419859
3396,4.224658,0.455443,-0.484720
3397,4.352907,0.402216,-0.530562
3398,4.371857,0.384441,-0.543234
3399,4.368273,0.434818,-0.502372
3400,4.284298,0.366131,-0.555872
3401,4.287920,0.308783,-0.586178
3402,4.318602,0.384174,-0.543217
3403,4.280718,0.416528,-0.515040
3404,4.211932,0.384776,-0.542773
3405,4.192055,0.414369,-0.519003
3406,4.195643,0.362121,-0.557448
3407,4.248115,0.375454,-0.549323
3408,0.025270,-0.021575,-0.021575
3409,0.019311,-0.023578,0.000000
3410,0.022291,-0.010788,-0.022576
3411,0.022291,-0.022576,-0.010788
3412,0.009656,-0.011789,0.000000
3413,0.038589,-0.032175,-0.032175
3414,0.042561,-0.016088,-0.043154
3415,0.031929,-0.026875,-0.026875
3416,0.046533,-0.054134,0.000000
3417,0.032922,-0.038856,0.000000
3418,0.042561,-0.043154,-0.016088
3419,4.470706,-0.666173,0.000000
3420,4.500217,-0.656351,-0.114863
3421,4.578493,-0.662028,-0.076443
3422,4.602973,-0.666411,0.000000
3423,4.485461,-0.661262,-0.057431
3424,4.539355,-0.659190,-0.095653
3425,4.590733,-0.664220,-0.038222
3426,4.536839,-0.666292,0.000000
3427,4.529768,-0.626816,-0.226293
3428,4.632395,-0.656571,-0.114866
3429,4.581082,-0.641694,-0.170580
3430,4.605444,-0.659300,-0.095655
3431,4.514992,-0.641584,-0.170578
3432,4.735049,-0.666562,0.000000
3433,4.669011,-0.666487,0.000000
3434,4.683722,-0.661567,-0.057433
3435,5.000000,-0.628470,-0.222791
3436,4.867521,-0.657082,-0.113032
3437,4.816836,-0.640012,-0.186923
3438,4.857740,-0.607333,-0.275077
3439,4.933760,-0.642776,-0.167911
3440,4.842178,-0.648547,-0.149977
3441,4.837288,-0.623672,-0.231000
3442,4.928870,-0.617901,-0.248934
3443,4.725246,-0.645131,-0.168133
3444,4.730147,-0.655846,-0.084067
3445,4.771041,-0.642571,-0.177528
3446,4.801285,-0.661822,-0.056516
3447,4.715482,-0.581768,-0.325354
3448,4.786611,-0.594550,-0.300216
3449,4.720364,-0.613449,-0.246744
3450,4.867521,-0.113032,-0.657082
3451,4.823756,-0.192348,-0.638407
3452,4.735627,-0.176369,-0.642940
3453,4.801285,-0.056516,-0.661822
3454,4.845639,-0.152690,-0.647744
3455,4.779692,-0.184359,-0.640673
3456,4.735338,-0.088185,-0.654751
3457,5.000000,-0.222791,-0.628470
3458,4.868122,-0.282814,-0.603764
3459,4.934061,-0.252803,-0.616117
3460,4.845939,-0.237581,-0.621085
3461,4.933760,-0.167911,-0.642776
3462,4.736246,-0.340115,-0.573261
3463,4.735936,-0.258242,-0.608100
3464,4.802184,-0.311465,-0.588512
3465,5.000000,-0.312796,-0.588773
3466,4.912081,-0.322238,-0.583633
3467,5.000000,-0.267793,-0.608622
3468,4.956040,-0.317517,-0.586203
3469,4.890101,-0.302526,-0.593698
3470,5.000000,-0.396449,-0.535881
3471,4.868123,-0.368772,-0.555306
3472,4.934061,-0.382610,-0.545593
3473,4.890102,-0.345505,-0.569470
3474,5.000000,-0.354622,-0.562327
3475,4.802184,-0.354443,-0.564283
3476,4.788010,-0.547565,-0.380072
3477,4.858672,-0.579192,-0.330096
3478,4.751746,-0.564667,-0.352713
3479,4.823341,-0.563379,-0.355084
3480,4.858206,-0.593262,-0.302586
3481,4.860542,-0.508236,-0.431223
3482,4.930269,-0.577845,-0.332484
3483,4.895405,-0.543040,-0.381854
3484,4.894470,-0.578519,-0.331290
3485,4.824276,-0.527900,-0.405648
3486,4.965134,-0.603157,-0.277638
3487,4.641393,-0.285581,-0.602257
3488,4.672596,-0.194350,-0.637672
3489,4.688820,-0.312848,-0.587759
3490,4.656995,-0.239965,-0.619964
3491,4.704111,-0.185360,-0.640306
3492,4.546548,-0.228559,-0.626024
3493,4.640785,-0.116053,-0.656375
3494,4.593667,-0.172306,-0.641199
3495,4.656691,-0.155202,-0.647023
3496,4.593971,-0.257070,-0.614141
3497,4.687917,-0.058026,-0.661468
3498,5.000000,-0.666667,0.000000
3499,4.867045,-0.666643,0.000000
3500,4.911681,-0.662451,-0.075226
3501,5.000000,-0.656974,-0.113803
3502,4.933522,-0.666655,0.000000
3503,4.889363,-0.664547,-0.037613
3504,4.955840,-0.659712,-0.094514
3505,5.000000,-0.661820,-0.056901
3506,4.889601,-0.659766,-0.094129
3507,4.801047,-0.666602,0.000000
3508,5.000000,-0.642722,-0.168297
3509,4.490138,-0.474102,-0.467861
3510,4.613184,-0.410490,-0.524876
3511,4.647270,-0.476179,-0.466114
3512,4.602802,-0.532741,-0.400225
3513,4.551661,-0.442296,-0.496369
3514,4.630227,-0.443334,-0.495495
3515,4.625036,-0.504460,-0.433170
3516,4.546470,-0.503422,-0.434043
3517,4.725844,-0.477216,-0.465173
3518,4.731045,-0.408665,-0.519217
3519,4.686557,-0.476697,-0.465644
3520,4.674715,-0.375302,-0.549068
3521,4.659142,-0.557255,-0.362789
3522,4.720663,-0.529492,-0.395263
3523,4.911681,-0.075226,-0.662451
3524,4.889363,-0.037613,-0.664547
3525,4.889601,-0.094129,-0.659766
3526,5.000000,-0.113803,-0.656974
3527,5.000000,-0.056901,-0.661820
3528,4.955840,-0.094514,-0.659712
3529,5.000000,-0.168297,-0.642722
3530,3.840985,-0.139487,-0.648543
3531,3.787158,-0.092744,-0.656379
3532,3.892271,-0.069744,-0.656268
3533,3.814071,-0.116116,-0.652461
3534,3.799176,-0.046372,-0.659703
3535,3.738645,-0.272688,-0.603768
3536,3.708985,-0.139475,-0.647390
3537,3.723815,-0.206081,-0.625579
3538,3.748071,-0.116110,-0.651885
3539,3.789815,-0.206087,-0.626156
3540,3.694295,-0.069738,-0.654620
3541,3.518236,-0.455433,-0.477595
3542,3.364223,-0.444879,-0.484588
3543,3.391990,-0.385316,-0.533750
3544,3.482931,-0.359052,-0.553295
3545,3.441230,-0.450156,-0.481092
3546,3.378107,-0.415097,-0.509169
3547,3.437461,-0.372184,-0.543522
3548,3.500584,-0.407242,-0.515445
3549,3.210221,-0.433856,-0.491071
3550,3.328924,-0.346967,-0.558374
3551,3.269573,-0.390412,-0.524722
3552,3.360457,-0.366142,-0.546062
3553,3.287222,-0.439368,-0.487830
3554,3.447921,-0.250256,-0.609913
3555,3.465426,-0.304654,-0.581604
3556,3.388422,-0.298612,-0.584144
3557,2.377456,-0.630012,0.000000
3558,2.387516,-0.620805,-0.110503
3559,2.469711,-0.629847,-0.073566
3560,2.505246,-0.635540,0.000000
3561,2.382486,-0.625409,-0.055252
3562,2.428614,-0.625326,-0.092034
3563,2.487479,-0.632694,-0.036783
3564,2.441351,-0.632776,0.000000
3565,2.398469,-0.592385,-0.217604
3566,2.515999,-0.626380,-0.110554
3567,2.457234,-0.609382,-0.164079
3568,2.492855,-0.628113,-0.092060
3569,2.392992,-0.606595,-0.164053
3570,2.634339,-0.640415,0.000000
3571,2.569792,-0.637978,0.000000
3572,2.575169,-0.633397,-0.055277
3573,2.698466,-0.246670,-0.593474
3574,2.549523,-0.234419,-0.592722
3575,2.577417,-0.158743,-0.618419
3576,2.665978,-0.125768,-0.629164
3577,2.623994,-0.240545,-0.593098
3578,2.563470,-0.196581,-0.605571
3579,2.621698,-0.142256,-0.623792
3580,2.682222,-0.186219,-0.611319
3581,2.400622,-0.221762,-0.590943
3582,2.517060,-0.112737,-0.626036
3583,2.458841,-0.167249,-0.608489
3584,2.547239,-0.135740,-0.622227
3585,2.475072,-0.228090,-0.591833
3586,2.650158,-0.062884,-0.634789
3587,2.575700,-0.056368,-0.633225
3588,3.146730,-0.112522,-0.644525
3589,3.062412,-0.074905,-0.648171
3590,3.150777,-0.056261,-0.649434
3591,3.104571,-0.093714,-0.646348
3592,3.043477,-0.037453,-0.649879
3593,3.139021,-0.221698,-0.615438
3594,3.016267,-0.112556,-0.641691
3595,3.077644,-0.167127,-0.628565
3596,3.039339,-0.093731,-0.644931
3597,3.142875,-0.167110,-0.629982
3598,2.955118,-0.056278,-0.645034
3599,4.052228,-0.086685,-0.659028
3600,3.974958,-0.130319,-0.651389
3601,4.063496,-0.043343,-0.661894
3602,4.013593,-0.108502,-0.655208
3603,3.959257,-0.065160,-0.657691
3604,4.106593,-0.130327,-0.652130
3605,4.156693,-0.065164,-0.658749
3606,4.079410,-0.108506,-0.655579
3607,4.006519,-0.255574,-0.613370
3608,3.990738,-0.192946,-0.632379
3609,4.056556,-0.192950,-0.632750
3610,3.896152,-0.179465,-0.639079
3611,3.935555,-0.154892,-0.645234
3612,3.868569,-0.159476,-0.643811
3613,3.872581,-0.264201,-0.608732
3614,3.939550,-0.259887,-0.611051
3615,3.884366,-0.221833,-0.623905
3616,3.805613,-0.268444,-0.606250
3617,4.067225,-0.515111,-0.419969
3618,4.036761,-0.397275,-0.532635
3619,4.082560,-0.370072,-0.552220
3620,4.120633,-0.423009,-0.512962
3621,4.051993,-0.456193,-0.476302
3622,4.059660,-0.383673,-0.542427
3623,4.101596,-0.396540,-0.532591
3624,4.093929,-0.469060,-0.466465
3625,4.090337,-0.285435,-0.600529
3626,4.048428,-0.270504,-0.606949
3627,4.086448,-0.327754,-0.576374
3628,4.021640,-0.326424,-0.573002
3629,4.174163,-0.314583,-0.586188
3630,4.147398,-0.368796,-0.549575
3631,4.132250,-0.300009,-0.593358
3632,4.190395,-0.162203,-0.645352
3633,4.129088,-0.194471,-0.636095
3634,4.198594,-0.081101,-0.655360
3635,4.159741,-0.178337,-0.640724
3636,4.117840,-0.162399,-0.644113
3637,4.109712,-0.239953,-0.618312
3638,4.182279,-0.238393,-0.615770
3639,2.083084,-0.574214,-0.217992
3640,2.240739,-0.583951,-0.218041
3641,2.200741,-0.603413,-0.147404
3642,2.102031,-0.605300,-0.110807
3643,2.161912,-0.579083,-0.218017
3644,2.220740,-0.593682,-0.182723
3645,2.151386,-0.604356,-0.129106
3646,2.092557,-0.589757,-0.164400
3647,2.259814,-0.614441,-0.110593
3648,2.329142,-0.603413,-0.164098
3649,2.230277,-0.608927,-0.128998
3650,2.319604,-0.588168,-0.217823
3651,2.122221,-0.616499,0.000000
3652,2.112126,-0.610899,-0.055404
3653,2.191018,-0.615470,-0.055296
3654,2.388575,-0.112686,-0.620464
3655,2.299629,-0.075036,-0.621806
3656,2.383015,-0.056343,-0.625238
3657,2.344102,-0.093861,-0.621135
3658,2.274408,-0.037518,-0.622737
3659,2.260871,-0.112778,-0.614102
3660,2.330746,-0.167270,-0.602522
3661,2.280250,-0.093907,-0.617954
3662,2.394599,-0.167224,-0.605703
3663,2.191546,-0.056389,-0.615300
3664,1.870650,-0.599195,0.000000
3665,1.746106,-0.588815,0.000000
3666,1.707000,-0.581265,-0.068761
3667,1.748940,-0.580013,-0.103355
3668,1.808378,-0.594005,0.000000
3669,1.726553,-0.585040,-0.034381
3670,1.727970,-0.580639,-0.086058
3671,1.809795,-0.589604,-0.051677
3672,1.623792,-0.577225,0.000000
3673,1.625475,-0.568175,-0.103236
3674,1.624633,-0.572700,-0.051618
3675,1.666237,-0.574720,-0.085998
3676,1.684949,-0.583020,0.000000
3677,1.629019,-0.540954,-0.203186
3678,1.688980,-0.560483,-0.153270
3679,1.627247,-0.554564,-0.153211
3680,1.746189,-0.102786,-0.579866
3681,1.705168,-0.068382,-0.581138
3682,1.808419,-0.051393,-0.589530
3683,1.725678,-0.085584,-0.580502
3684,1.725637,-0.034191,-0.584977
3685,1.623510,-0.202088,-0.540773
3686,1.622727,-0.102662,-0.567997
3687,1.623118,-0.152375,-0.554385
3688,1.663947,-0.085522,-0.574568
3689,1.684849,-0.152437,-0.560319
3690,1.623259,-0.051331,-0.572611
3691,0.320363,-0.096515,-0.242620
3692,0.283522,-0.064118,-0.231552
3693,0.337044,-0.048257,-0.260666
3694,0.301942,-0.080317,-0.237086
3695,0.280922,-0.032059,-0.234351
3696,0.304890,-0.180895,-0.176086
3697,0.252571,-0.096342,-0.199431
3698,0.278731,-0.138619,-0.187759
3699,0.268047,-0.080230,-0.215492
3700,0.312627,-0.138705,-0.209353
3701,0.234875,-0.048171,-0.198936
3702,0.353725,-0.278711,0.000000
3703,0.278323,-0.237151,0.000000
3704,0.284019,-0.232382,-0.062179
3705,0.320944,-0.244124,-0.093540
3706,0.316024,-0.257931,0.000000
3707,0.281171,-0.234766,-0.031089
3708,0.302481,-0.238253,-0.077860
3709,0.337334,-0.261418,-0.046770
3710,0.217179,-0.198440,0.000000
3711,0.253091,-0.201186,-0.093405
3712,0.235135,-0.199813,-0.046702
3713,0.268555,-0.216784,-0.077792
3714,0.247751,-0.217796,0.000000
3715,0.312917,-0.212510,-0.134813
3716,0.278990,-0.191041,-0.134746
3717,4.206794,-0.665367,0.000000
3718,4.249122,-0.653189,-0.128113
3719,4.322979,-0.660369,-0.085223
3720,4.339216,-0.665833,0.000000
3721,4.227958,-0.659278,-0.064056
3722,4.286051,-0.656779,-0.106668
3723,4.331098,-0.663101,-0.042612
3724,4.273005,-0.665600,0.000000
3725,4.291543,-0.616484,-0.251435
3726,4.381090,-0.653618,-0.128117
3727,4.336317,-0.635051,-0.189776
3728,4.352035,-0.656994,-0.106670
3729,4.270333,-0.634836,-0.189774
3730,4.404961,-0.666003,0.000000
3731,4.425898,-0.659896,-0.064058
3732,4.278318,-0.128295,-0.653260
3733,4.243573,-0.193125,-0.637009
3734,4.242556,-0.064147,-0.659313
3735,4.260946,-0.160710,-0.645134
3736,4.216984,-0.177664,-0.641181
3737,4.349930,-0.251776,-0.616543
3738,4.262043,-0.283584,-0.602223
3739,4.305986,-0.267680,-0.609383
3740,4.252808,-0.238354,-0.619616
3741,4.314124,-0.190035,-0.634902
3742,4.218103,-0.299084,-0.594206
3743,4.383638,-0.474182,-0.467419
3744,4.372368,-0.407416,-0.526642
3745,4.420000,-0.370488,-0.553451
3746,4.436888,-0.474142,-0.467640
3747,4.378003,-0.440799,-0.497031
3748,4.396184,-0.388952,-0.540046
3749,4.455069,-0.422295,-0.510656
3750,4.277138,-0.474207,-0.466925
3751,4.313490,-0.370578,-0.553027
3752,4.295314,-0.422392,-0.509976
3753,4.342929,-0.388997,-0.539834
3754,4.330388,-0.474194,-0.467172
3755,4.384965,-0.311132,-0.584997
3756,4.331710,-0.311177,-0.584785
3757,4.342443,-0.085342,-0.660414
3758,4.340829,-0.042671,-0.663123
3759,4.310381,-0.106818,-0.656837
3760,4.410286,-0.128293,-0.653663
3761,4.440496,-0.064147,-0.659918
3762,4.376364,-0.106818,-0.657038
3763,4.380108,-0.190035,-0.635103
3764,1.382679,-0.549486,0.000000
3765,1.264158,-0.532960,0.000000
3766,1.245726,-0.525656,-0.069585
3767,1.294585,-0.527220,-0.104591
3768,1.323418,-0.541223,0.000000
3769,1.254942,-0.529308,-0.034793
3770,1.270156,-0.526438,-0.087088
3771,1.338632,-0.538353,-0.052296
3772,1.149345,-0.514729,0.000000
3773,1.177841,-0.508947,-0.104485
3774,1.163593,-0.511838,-0.052242
3775,1.211783,-0.517301,-0.087035
3776,1.206752,-0.523845,0.000000
3777,1.209704,-0.483043,-0.204853
3778,1.252145,-0.505132,-0.154722
3779,1.193773,-0.495995,-0.154669
3780,0.677864,-0.168226,-0.370579
3781,0.594140,-0.214090,-0.313582
3782,0.565699,-0.147046,-0.339254
3783,0.597302,-0.086156,-0.371008
3784,0.636002,-0.191158,-0.342080
3785,0.579920,-0.180568,-0.326418
3786,0.581501,-0.116601,-0.355131
3787,0.637583,-0.127191,-0.370793
3788,0.515488,-0.251651,-0.244453
3789,0.509723,-0.135226,-0.321416
3790,0.512606,-0.193438,-0.282935
3791,0.537711,-0.141136,-0.330335
3792,0.554814,-0.232871,-0.279018
3793,0.560131,-0.043078,-0.362401
3794,0.516342,-0.067613,-0.337606
3795,3.679606,-0.661849,0.000000
3796,3.718033,-0.655040,-0.097747
3797,3.793198,-0.659718,-0.065088
3798,3.811194,-0.663027,0.000000
3799,3.698819,-0.658445,-0.048873
3800,3.755615,-0.657379,-0.081417
3801,3.802196,-0.661372,-0.032544
3802,3.745400,-0.662438,0.000000
3803,3.756595,-0.633859,-0.193364
3804,3.850020,-0.656165,-0.097753
3805,3.803307,-0.645012,-0.145558
3806,3.821609,-0.657942,-0.081420
3807,3.737314,-0.644449,-0.145555
3808,3.943557,-0.663992,0.000000
3809,3.877375,-0.663510,0.000000
3810,3.896789,-0.660079,-0.048876
3811,4.034691,-0.580766,-0.323047
3812,3.945480,-0.564684,-0.349304
3813,3.917165,-0.522365,-0.409463
3814,4.050958,-0.547939,-0.371508
3815,3.990085,-0.572725,-0.336176
3816,3.931322,-0.543525,-0.379384
3817,3.992195,-0.518738,-0.414716
3818,4.002271,-0.628377,-0.216059
3819,3.884629,-0.586110,-0.311246
3820,3.943450,-0.607244,-0.263653
3821,3.915055,-0.575397,-0.330275
3822,4.018481,-0.604572,-0.269553
3823,3.767107,-0.529228,-0.398650
3824,3.842136,-0.525797,-0.404057
3825,3.825868,-0.557669,-0.354948
3826,3.628341,-0.369349,-0.548517
3827,3.674520,-0.428415,-0.504270
3828,3.642648,-0.494055,-0.439658
3829,3.573288,-0.412391,-0.513056
3830,3.651431,-0.398882,-0.526394
3831,3.658584,-0.461235,-0.471964
3832,3.580442,-0.474744,-0.458627
3833,3.752694,-0.413825,-0.517267
3834,3.745670,-0.343256,-0.560517
3835,3.713607,-0.421120,-0.510768
3836,3.683493,-0.321019,-0.576143
3837,3.704877,-0.511642,-0.419154
3838,3.759901,-0.471527,-0.457959
3839,0.926158,-0.471515,0.000000
3840,0.818064,-0.445950,0.000000
3841,0.782918,-0.433806,-0.051737
3842,0.817299,-0.438975,-0.077812
3843,0.872111,-0.458732,0.000000
3844,0.800491,-0.439878,-0.025869
3845,0.800109,-0.436390,-0.064775
3846,0.871729,-0.455245,-0.038906
3847,0.715730,-0.418205,0.000000
3848,0.712411,-0.410044,-0.077489
3849,0.714070,-0.414125,-0.038744
3850,0.747664,-0.421925,-0.064613
3851,0.766897,-0.432077,0.000000
3852,0.713020,-0.388643,-0.152487
3853,0.765160,-0.413809,-0.115150
3854,0.712716,-0.399344,-0.114988
3855,0.115482,-0.120579,0.000000
3856,0.139221,-0.125586,-0.063195
3857,0.162757,-0.153567,-0.042166
3858,0.158703,-0.156088,0.000000
3859,0.127351,-0.123083,-0.031597
3860,0.150989,-0.139577,-0.052680
3861,0.160730,-0.154827,-0.021083
3862,0.137092,-0.138333,0.000000
3863,0.174608,-0.117853,-0.119960
3864,0.188952,-0.167139,-0.063397
3865,0.181780,-0.142496,-0.091678
3866,0.175855,-0.160353,-0.052781
3867,0.156915,-0.121719,-0.091577
3868,0.187941,-0.177264,0.000000
3869,0.203066,-0.182789,-0.031698
3870,0.189248,-0.062130,-0.167842
3871,0.162998,-0.041338,-0.153983
3872,0.203214,-0.031065,-0.183141
3873,0.176123,-0.051734,-0.160912
3874,0.160851,-0.020669,-0.155035
3875,0.139455,-0.061949,-0.126420
3876,0.157032,-0.089901,-0.123190
3877,0.151226,-0.051643,-0.140202
3878,0.181928,-0.089991,-0.143901
3879,0.127468,-0.030974,-0.123500
3880,0.908938,-0.106003,-0.455585
3881,0.843501,-0.070668,-0.446787
3882,0.917548,-0.053002,-0.463550
3883,0.876219,-0.088335,-0.451186
3884,0.830782,-0.035334,-0.446368
3885,0.897064,-0.206649,-0.416575
3886,0.803234,-0.106263,-0.429284
3887,0.850149,-0.156456,-0.422929
3888,0.823367,-0.088465,-0.438035
3889,0.903001,-0.156326,-0.436080
3890,0.759482,-0.053132,-0.423744
3891,3.548524,-0.660431,0.000000
3892,3.538574,-0.655139,-0.082973
3893,3.599460,-0.649243,-0.124718
3894,3.614065,-0.661140,0.000000
3895,3.543549,-0.657785,-0.041486
3896,3.569017,-0.652191,-0.103845
3897,3.639533,-0.655546,-0.062359
3898,3.416923,-0.658726,0.000000
3899,3.468093,-0.647627,-0.124713
3900,3.442508,-0.653176,-0.062356
3901,3.503334,-0.651383,-0.103843
3902,3.482723,-0.659579,0.000000
3903,3.519579,-0.613075,-0.244929
3904,3.559520,-0.631159,-0.184823
3905,3.493836,-0.630351,-0.184821
3906,3.568159,-0.330831,-0.571869
3907,3.525545,-0.344941,-0.562582
3908,3.598250,-0.350090,-0.560193
3909,3.593280,-0.261577,-0.607084
3910,3.520600,-0.255917,-0.608499
3911,3.580720,-0.296204,-0.589477
3912,3.665962,-0.267132,-0.605426
3913,3.621925,-0.177633,-0.637085
3914,3.563617,-0.127558,-0.648280
3915,3.665455,-0.158554,-0.642238
3916,3.592771,-0.152595,-0.642683
3917,3.621611,-0.063779,-0.655065
3918,3.607602,-0.219605,-0.622085
3919,3.505769,-0.188907,-0.629097
3920,3.514677,-0.084847,-0.654607
3921,3.539147,-0.106203,-0.651444
3922,3.531601,-0.042424,-0.657519
3923,3.432249,-0.127538,-0.646585
3924,3.440085,-0.188897,-0.628249
3925,3.473463,-0.106192,-0.650596
3926,3.424586,-0.063769,-0.652656
3927,2.664798,-0.629745,-0.122603
3928,2.741122,-0.638837,-0.081579
3929,2.763671,-0.644664,0.000000
3930,2.649569,-0.635080,-0.061301
3931,2.702960,-0.634291,-0.102091
3932,2.752396,-0.641751,-0.040790
3933,2.699005,-0.642539,0.000000
3934,2.696064,-0.595840,-0.240701
3935,2.794661,-0.633943,-0.122630
3936,2.745363,-0.614892,-0.181665
3937,2.767891,-0.636390,-0.102105
3938,2.680431,-0.612793,-0.181652
3939,2.893970,-0.648376,0.000000
3940,2.828820,-0.646520,0.000000
3941,2.844315,-0.641159,-0.061315
3942,2.741905,-0.083675,-0.638593
3943,2.752788,-0.041838,-0.641629
3944,2.703942,-0.104722,-0.633879
3945,2.795843,-0.125795,-0.633361
3946,2.844907,-0.062897,-0.640868
3947,2.768874,-0.104735,-0.635977
3948,2.747155,-0.186232,-0.613418
3949,1.521989,-0.398311,-0.402497
3950,1.571395,-0.307029,-0.482336
3951,1.618399,-0.344895,-0.462088
3952,1.617569,-0.406171,-0.409092
3953,1.546692,-0.352670,-0.442417
3954,1.594897,-0.325962,-0.472212
3955,1.617984,-0.375533,-0.435590
3956,1.569779,-0.402241,-0.405795
3957,1.667116,-0.314816,-0.488880
3958,1.645313,-0.258452,-0.514826
3959,1.642758,-0.329855,-0.475484
3960,1.597453,-0.254558,-0.511554
3961,1.713247,-0.413348,-0.414999
3962,1.665408,-0.409759,-0.412045
3963,1.690181,-0.364082,-0.451939
3964,1.620207,-0.460406,-0.347437
3965,1.574096,-0.480750,-0.310030
3966,1.618888,-0.433288,-0.378264
3967,1.597151,-0.470578,-0.328733
3968,1.548043,-0.439530,-0.356264
3969,1.669861,-0.488238,-0.316293
3970,1.691554,-0.450793,-0.365646
3971,1.645034,-0.474322,-0.331865
3972,1.601557,-0.510852,-0.256608
3973,1.649440,-0.514596,-0.259740
3974,4.509923,-0.563549,-0.355353
3975,4.437120,-0.583513,-0.321296
3976,4.390807,-0.555907,-0.366667
3977,4.500031,-0.518826,-0.411607
3978,4.473521,-0.573531,-0.338325
3979,4.413963,-0.569710,-0.343981
3980,4.440473,-0.515004,-0.417264
3981,4.410655,-0.621823,-0.238931
3982,4.470212,-0.624319,-0.232612
3983,4.423887,-0.602668,-0.280114
3984,4.519846,-0.595182,-0.290823
3985,4.341175,-0.586195,-0.309051
3986,4.351099,-0.619153,-0.245183
3987,4.430648,-0.646286,-0.161689
3988,4.405869,-0.649952,-0.144903
3989,4.465432,-0.651319,-0.138276
3990,4.420651,-0.634054,-0.200310
3991,4.578446,-0.569913,-0.345315
3992,4.590624,-0.551327,-0.372770
3993,4.544185,-0.566731,-0.350334
3994,4.622622,-0.606344,-0.276763
3995,4.669052,-0.594056,-0.301058
3996,4.600534,-0.588129,-0.311039
3997,4.576195,-0.616580,-0.251528
3998,4.660082,-0.639517,-0.188138
3999,4.692664,-0.642324,-0.178136
4000,4.641352,-0.622930,-0.232450
4001,4.646239,-0.648044,-0.151502
4002,4.518313,-0.360092,-0.560544
4003,4.590961,-0.353386,-0.564953
4004,4.504225,-0.417097,-0.514203
4005,4.554637,-0.356739,-0.562748
4006,4.602073,-0.381938,-0.544914
4007,4.616177,-0.319483,-0.583605
4008,4.532430,-0.294325,-0.593284
4009,4.584087,-0.077230,-0.661947
4010,4.508607,-0.116050,-0.656160
4011,4.593530,-0.038615,-0.664179
4012,4.546347,-0.096640,-0.659053
4013,4.489656,-0.058025,-0.661166
4014,4.612436,-0.096641,-0.659161
4015,4.527578,-0.172304,-0.641092
4016,4.462176,-0.324629,-0.581727
4017,4.441088,-0.347559,-0.567589
4018,4.490244,-0.342360,-0.571135
4019,4.448239,-0.240221,-0.621422
4020,4.399084,-0.245999,-0.618983
4021,4.455207,-0.282425,-0.601574
4022,4.497393,-0.234390,-0.623723
4023,4.455705,-0.162592,-0.646120
4024,4.482156,-0.139321,-0.651140
4025,4.432995,-0.145443,-0.649891
4026,4.451972,-0.201407,-0.633771
4027,1.976142,-0.596879,-0.110877
4028,2.024697,-0.605894,-0.073782
4029,1.995421,-0.608337,0.000000
4030,1.923396,-0.598037,-0.055439
4031,2.000420,-0.601387,-0.092329
4032,2.010059,-0.607116,-0.036891
4033,1.933035,-0.603766,0.000000
4034,2.063364,-0.605597,-0.092295
4035,2.029613,-0.585546,-0.164435
4036,2.058821,-0.612418,0.000000
4037,1.082112,-0.352552,-0.358476
4038,1.186143,-0.364128,-0.372251
4039,1.192580,-0.410740,-0.321818
4040,1.144214,-0.426038,-0.287235
4041,1.134127,-0.358340,-0.365364
4042,1.189362,-0.387434,-0.347035
4043,1.168397,-0.418389,-0.304526
4044,1.113163,-0.389295,-0.322856
4045,1.290492,-0.374334,-0.384627
4046,1.248534,-0.437199,-0.300606
4047,1.269513,-0.405767,-0.342617
4048,1.220557,-0.423970,-0.311212
4049,1.238318,-0.369231,-0.378439
4050,1.176959,-0.454541,-0.246044
4051,1.229119,-0.460121,-0.252730
4052,1.100352,-0.281517,-0.420649
4053,1.163370,-0.314328,-0.410493
4054,1.091232,-0.317035,-0.389563
4055,1.131861,-0.297922,-0.415571
4056,1.174757,-0.339228,-0.391372
4057,1.121630,-0.201035,-0.468743
4058,1.204606,-0.292810,-0.434268
4059,1.163118,-0.246923,-0.451505
4060,1.183988,-0.303569,-0.422381
4061,1.110991,-0.241276,-0.444696
4062,1.247549,-0.333572,-0.409448
4063,2.024703,-0.073845,-0.605887
4064,1.976151,-0.110973,-0.596861
4065,2.010062,-0.036923,-0.607112
4066,2.000427,-0.092409,-0.601374
4067,1.923400,-0.055487,-0.598028
4068,2.102040,-0.110904,-0.605283
4069,2.112130,-0.055452,-0.610891
4070,2.063371,-0.092375,-0.605585
4071,2.083104,-0.218175,-0.574146
4072,2.029627,-0.164574,-0.585504
4073,2.092572,-0.164539,-0.589714
4074,3.154824,-0.654343,0.000000
4075,3.024542,-0.651588,0.000000
4076,3.053291,-0.646871,-0.083937
4077,3.133070,-0.641731,-0.126153
4078,3.089683,-0.652965,0.000000
4079,3.038916,-0.649229,-0.041969
4080,3.093180,-0.644301,-0.105045
4081,3.143947,-0.648037,-0.063077
4082,3.002600,-0.638840,-0.126183
4083,2.948285,-0.643608,-0.063092
4084,3.027945,-0.642856,-0.105060
4085,2.959256,-0.649982,0.000000
4086,3.111812,-0.604884,-0.247562
4087,3.122441,-0.623307,-0.186858
4088,3.057206,-0.621862,-0.186873
4089,3.174398,-0.333733,-0.563278
4090,3.265559,-0.306374,-0.580525
4091,3.192310,-0.383795,-0.527174
4092,3.219979,-0.320054,-0.571901
4093,3.297241,-0.326671,-0.569449
4094,3.293464,-0.236122,-0.613052
4095,3.216243,-0.228910,-0.614245
4096,3.279512,-0.271248,-0.596788
4097,3.156710,-0.277716,-0.589358
4098,3.370692,-0.243189,-0.611483
4099,0.666507,-0.290539,-0.279773
4100,0.687556,-0.345759,-0.220066
4101,0.629104,-0.316609,-0.230184
4102,0.590541,-0.272041,-0.263028
4103,0.677032,-0.318149,-0.249920
4104,0.658330,-0.331184,-0.225125
4105,0.609823,-0.294325,-0.246606
4106,0.628524,-0.281290,-0.271401
4107,0.611268,-0.327684,-0.203156
4108,0.662144,-0.358164,-0.177821
4109,0.620186,-0.322147,-0.216670
4110,0.700288,-0.367201,-0.186277
4111,0.553015,-0.261846,-0.253741
4112,0.563378,-0.289668,-0.223805
4113,0.615311,-0.379067,-0.077849
4114,0.577723,-0.347377,-0.138721
4115,0.664165,-0.383855,-0.115168
4116,0.596517,-0.363222,-0.108285
4117,0.594496,-0.337530,-0.170938
4118,0.522961,-0.353795,0.000000
4119,0.510396,-0.323584,-0.130668
4120,0.516678,-0.338690,-0.065334
4121,0.544059,-0.335481,-0.134695
4122,0.569136,-0.366431,-0.038925
4123,0.512942,-0.287618,-0.187561
4124,3.983186,-0.467144,-0.472040
4125,3.990899,-0.402977,-0.527990
4126,4.025206,-0.491128,-0.446004
4127,3.987042,-0.435061,-0.500015
4128,4.013830,-0.400126,-0.530313
4129,3.899194,-0.413852,-0.518730
4130,3.952815,-0.338001,-0.571596
4131,3.926004,-0.375927,-0.545163
4132,3.971857,-0.370489,-0.549793
4133,3.941190,-0.440498,-0.495385
4134,3.979667,-0.296787,-0.592483
4135,3.881415,-0.316546,-0.583231
4136,3.818878,-0.345975,-0.565661
4137,3.876998,-0.290374,-0.595981
4138,3.850146,-0.331261,-0.574446
4139,3.778761,-0.309332,-0.584715
4140,3.917115,-0.327274,-0.577413
4141,3.859036,-0.379914,-0.542195
4142,3.911147,-0.489098,-0.448568
4143,3.914156,-0.505732,-0.429015
4144,3.947167,-0.478121,-0.460304
4145,3.833109,-0.475293,-0.462342
4146,3.800108,-0.502261,-0.430496
4147,3.872128,-0.482196,-0.455455
4148,3.866151,-0.444573,-0.490536
4149,3.801536,-0.413848,-0.517782
4150,3.810207,-0.379912,-0.541721
4151,3.777115,-0.413836,-0.517524
4152,3.817323,-0.444570,-0.490062
4153,1.504716,-0.554949,-0.103397
4154,1.544187,-0.564716,-0.068795
4155,1.501652,-0.564064,0.000000
4156,1.443698,-0.552217,-0.051699
4157,1.524451,-0.559832,-0.086096
4158,1.522919,-0.564390,-0.034397
4159,1.442166,-0.556775,0.000000
4160,1.584831,-0.566446,-0.086015
4161,1.566867,-0.547951,-0.153291
4162,1.562722,-0.570645,0.000000
4163,2.575915,-0.619259,-0.155198
4164,2.547246,-0.594614,-0.229346
4165,2.620357,-0.624502,-0.138900
4166,2.561581,-0.606936,-0.192272
4167,2.621655,-0.595227,-0.235023
4168,2.545957,-0.622819,-0.132876
4169,2.472857,-0.593499,-0.223475
4170,2.249187,-0.623667,0.000000
4171,2.298928,-0.621943,-0.073587
4172,2.313322,-0.626840,0.000000
4173,2.274058,-0.622805,-0.036794
4174,2.343222,-0.621374,-0.092045
4175,2.279371,-0.618192,-0.092090
4176,2.185704,-0.620083,0.000000
4177,2.470415,-0.075013,-0.629708
4178,2.487830,-0.037506,-0.632624
4179,2.429495,-0.093849,-0.625086
4180,2.493738,-0.093875,-0.627872
4181,2.201455,-0.148918,-0.603083
4182,2.241826,-0.220215,-0.583196
4183,2.151747,-0.129911,-0.604183
4184,2.221640,-0.184566,-0.593139
4185,2.162465,-0.219195,-0.578671
4186,2.231163,-0.130848,-0.608592
4187,2.321224,-0.220988,-0.587069
4188,0.224893,-0.105301,-0.174265
4189,0.238732,-0.100821,-0.186848
4190,0.207070,-0.083715,-0.171053
4191,0.238387,-0.150874,-0.149509
4192,0.271639,-0.165885,-0.162798
4193,0.231640,-0.128087,-0.161887
4194,0.206498,-0.134363,-0.134735
4195,0.225037,-0.175020,-0.104231
4196,0.206994,-0.171079,-0.083814
4197,0.239064,-0.188103,-0.098818
4198,0.231712,-0.162947,-0.126870
4199,1.542359,-0.068411,-0.564560
4200,1.501973,-0.102816,-0.554736
4201,1.522006,-0.034206,-0.564312
4202,1.522166,-0.085614,-0.559648
4203,1.442326,-0.051408,-0.552111
4204,1.582543,-0.085537,-0.566278
4205,1.562741,-0.152452,-0.547755
4206,0.858616,-0.435765,-0.134478
4207,0.932509,-0.456454,-0.124021
4208,0.837958,-0.437370,-0.106145
4209,0.895563,-0.446109,-0.129250
4210,0.929334,-0.463985,-0.062011
4211,0.828568,-0.402775,-0.197597
4212,0.770794,-0.395709,-0.175042
4213,0.843592,-0.419270,-0.166037
4214,0.945770,-0.410960,-0.239781
4215,0.939140,-0.433707,-0.181901
4216,0.887169,-0.406868,-0.218689
4217,1.063848,-0.068364,-0.494861
4218,1.021776,-0.102762,-0.480662
4219,1.049481,-0.034182,-0.494452
4220,1.042812,-0.085563,-0.487761
4221,0.973967,-0.051381,-0.476088
4222,1.133722,-0.102560,-0.501768
4223,1.141534,-0.051280,-0.508249
4224,1.098785,-0.085462,-0.498314
4225,1.071703,-0.151899,-0.474702
4226,1.127676,-0.151798,-0.485255
4227,3.601527,-0.541046,-0.379681
4228,3.518722,-0.546745,-0.369730
4229,3.622087,-0.517550,-0.409670
4230,3.560124,-0.543896,-0.374705
4231,3.518479,-0.501089,-0.423663
4232,3.643282,-0.576321,-0.324711
4233,3.705194,-0.552775,-0.361680
4234,3.622404,-0.558684,-0.352196
4235,3.519150,-0.579910,-0.307330
4236,3.581430,-0.594698,-0.284820
4237,1.077764,-0.422053,-0.271925
4238,1.013017,-0.385414,-0.302000
4239,1.110989,-0.424046,-0.279580
4240,1.045391,-0.403734,-0.286962
4241,1.047565,-0.368983,-0.330238
4242,1.077221,-0.449508,-0.223567
4243,1.143463,-0.466276,-0.214210
4244,1.077493,-0.435781,-0.247746
4245,0.979394,-0.398187,-0.270890
4246,1.011496,-0.430234,-0.231674
4247,1.465181,-0.453278,-0.328388
4248,1.406631,-0.428498,-0.348756
4249,1.406124,-0.386963,-0.394215
4250,1.493585,-0.425794,-0.365442
4251,1.435906,-0.440888,-0.338572
4252,1.406378,-0.407731,-0.371485
4253,1.464057,-0.392637,-0.398356
4254,1.410217,-0.495752,-0.245207
4255,1.349282,-0.441457,-0.319571
4256,1.379749,-0.468605,-0.282389
4257,1.377956,-0.434977,-0.334163
4258,1.437699,-0.474515,-0.286797
4259,1.348308,-0.380649,-0.389421
4260,1.319887,-0.407896,-0.352099
4261,1.302253,-0.458308,-0.282723
4262,1.309820,-0.490301,-0.225447
4263,1.275393,-0.447754,-0.291665
4264,1.306036,-0.474304,-0.254085
4265,1.259762,-0.486672,-0.215150
4266,1.325767,-0.449883,-0.301147
4267,1.360018,-0.493026,-0.235327
4268,1.519285,-0.486904,-0.288723
4269,1.546690,-0.483827,-0.299377
4270,1.492233,-0.470091,-0.308555
4271,1.519459,-0.519648,-0.224758
4272,1.574239,-0.530301,-0.213972
4273,1.519372,-0.503276,-0.256741
4274,1.464838,-0.507700,-0.234983
4275,2.038815,-0.431871,-0.432399
4276,1.949567,-0.366125,-0.481684
4277,1.993702,-0.319482,-0.517538
4278,2.060092,-0.332362,-0.514606
4279,1.994191,-0.398998,-0.457041
4280,1.971634,-0.342803,-0.499611
4281,2.026897,-0.325922,-0.516072
4282,2.049453,-0.382117,-0.473502
4283,1.861160,-0.293297,-0.521671
4284,1.971982,-0.256637,-0.549834
4285,1.916571,-0.274967,-0.535753
4286,1.982842,-0.288059,-0.533686
4287,1.905363,-0.329711,-0.501678
4288,2.071598,-0.275268,-0.544376
4289,2.027543,-0.237406,-0.561990
4290,1.950378,-0.481115,-0.366968
4291,1.919821,-0.425874,-0.426644
4292,1.994596,-0.456493,-0.399683
4293,1.935099,-0.453494,-0.396806
4294,1.934694,-0.395999,-0.454164
4295,1.862776,-0.521141,-0.294493
4296,1.860251,-0.422587,-0.423482
4297,1.861514,-0.471864,-0.358988
4298,1.890036,-0.424230,-0.425063
4299,1.906577,-0.501128,-0.330730
4300,1.860706,-0.357942,-0.472577
4301,1.742121,-0.248708,-0.533395
4302,1.731797,-0.307815,-0.500432
4303,1.682816,-0.225398,-0.537084
4304,1.736959,-0.278262,-0.516914
4305,1.699456,-0.311316,-0.494656
4306,1.786726,-0.356705,-0.472810
4307,1.823943,-0.325001,-0.497241
4308,1.759261,-0.332260,-0.486621
4309,1.801641,-0.271002,-0.527533
4310,1.749986,-0.385027,-0.443905
4311,0.648182,-0.394304,-0.051796
4312,0.614977,-0.386804,0.000000
4313,0.631747,-0.386685,-0.064823
4314,0.631580,-0.390554,-0.025898
4315,0.568969,-0.370300,0.000000
4316,0.680297,-0.402174,-0.064643
4317,0.665353,-0.402505,0.000000
4318,0.617684,-0.241043,-0.303597
4319,0.670153,-0.233178,-0.330545
4320,0.604113,-0.256542,-0.283313
4321,0.643919,-0.237111,-0.317071
4322,0.668330,-0.261859,-0.305159
4323,0.605912,-0.227567,-0.308590
4324,0.674009,-0.200702,-0.350562
4325,0.635992,-0.057350,-0.389576
4326,0.625484,-0.028675,-0.388190
4327,0.616647,-0.071753,-0.380292
4328,0.694204,-0.085916,-0.402874
4329,0.704967,-0.042958,-0.410540
4330,0.665098,-0.071633,-0.396225
4331,0.686034,-0.127071,-0.386727
4332,4.930270,-0.455340,-0.486755
4333,4.865593,-0.418949,-0.518416
4334,4.965135,-0.425894,-0.511318
4335,4.897932,-0.437145,-0.502586
4336,4.866858,-0.393860,-0.536861
4337,4.798388,-0.430050,-0.509189
4338,4.829465,-0.469143,-0.470206
4339,4.831991,-0.424500,-0.513803
4340,4.895406,-0.481788,-0.458989
4341,4.767317,-0.385083,-0.541225
4342,4.770746,-0.488058,-0.453841
4343,4.748295,-0.482637,-0.459507
4344,4.779378,-0.517812,-0.416956
4345,4.784567,-0.459054,-0.481515
4346,5.000000,-0.471312,-0.471312
4347,4.953513,-0.484072,-0.458195
4348,5.000000,-0.433880,-0.503596
4349,4.976757,-0.477692,-0.464754
4350,4.941892,-0.469706,-0.472475
4351,5.000000,-0.535881,-0.396449
4352,4.930271,-0.522352,-0.414069
4353,4.965135,-0.529116,-0.405259
4354,4.941892,-0.503212,-0.436132
4355,5.000000,-0.503596,-0.433880
4356,4.895406,-0.515294,-0.422646
4357,5.000000,-0.588773,-0.312796
4358,4.953513,-0.564532,-0.354565
4359,5.000000,-0.562327,-0.354622
4360,4.976756,-0.576653,-0.333680
4361,4.941892,-0.543442,-0.384317
4362,4.941891,-0.571188,-0.343524
4363,5.000000,-0.608622,-0.267793
4364,3.972857,-0.655175,-0.109524
4365,4.050830,-0.660672,-0.072904
4366,4.074765,-0.664760,0.000000
4367,3.958207,-0.659584,-0.054762
4368,4.011844,-0.657924,-0.091214
4369,4.062797,-0.662716,-0.036452
4370,4.009161,-0.664376,0.000000
4371,4.104487,-0.655915,-0.109531
4372,4.053379,-0.642146,-0.162795
4373,4.077659,-0.658294,-0.091218
4374,3.987564,-0.641776,-0.162791
4375,4.140780,-0.665064,0.000000
4376,4.155641,-0.660641,-0.054765
4377,1.811173,-0.419648,-0.420802
4378,1.787527,-0.471771,-0.358189
4379,1.798949,-0.388177,-0.446806
4380,1.799350,-0.445710,-0.389496
4381,1.750387,-0.442559,-0.386594
4382,1.835712,-0.421117,-0.422142
4383,1.825152,-0.496456,-0.326341
4384,1.734166,-0.499828,-0.309197
4385,1.745685,-0.533208,-0.249855
4386,1.702013,-0.494033,-0.312745
4387,1.739925,-0.516518,-0.279526
4388,1.687352,-0.537081,-0.226520
4389,1.760846,-0.485800,-0.333693
4390,1.804231,-0.527175,-0.272174
4391,2.060076,-0.514455,-0.332593
4392,1.994231,-0.517242,-0.320028
4393,2.049445,-0.473163,-0.382496
4394,2.027153,-0.515849,-0.326310
4395,1.972305,-0.499178,-0.343498
4396,1.972777,-0.549648,-0.257167
4397,2.027931,-0.561931,-0.237579
4398,1.983504,-0.533445,-0.288597
4399,2.071580,-0.544334,-0.275292
4400,1.917777,-0.535394,-0.275830
4401,4.179353,-0.572123,-0.339466
4402,4.120308,-0.593815,-0.299441
4403,4.123289,-0.543617,-0.379717
4404,4.149831,-0.582969,-0.319453
4405,4.077499,-0.587291,-0.311244
4406,4.146905,-0.622763,-0.233872
4407,4.219224,-0.619623,-0.242654
4408,4.133607,-0.608289,-0.266656
4409,4.235448,-0.594303,-0.295450
4410,4.074588,-0.625570,-0.224965
4411,4.166827,-0.646251,-0.158154
4412,4.135657,-0.651083,-0.133842
4413,4.207975,-0.649720,-0.143133
4414,4.156866,-0.634507,-0.196013
4415,0.099636,-0.035448,-0.100436
4416,0.080981,-0.023660,-0.085873
4417,0.107559,-0.017724,-0.110507
4418,0.090309,-0.029554,-0.093154
4419,0.078083,-0.011830,-0.084656
4420,0.091666,-0.068012,-0.072129
4421,0.066227,-0.035364,-0.065646
4422,0.078947,-0.051688,-0.068887
4423,0.073604,-0.029512,-0.075759
4424,0.095651,-0.051730,-0.086282
4425,0.056380,-0.017682,-0.059890
4426,0.055914,-0.044509,-0.046008
4427,0.065837,-0.063863,-0.037717
4428,0.047251,-0.038342,-0.039091
4429,0.060875,-0.054186,-0.041862
4430,0.056185,-0.058998,-0.018858
4431,0.061071,-0.039937,-0.055827
4432,0.078751,-0.065938,-0.054923
4433,0.080508,-0.084946,-0.025243
4434,0.075185,-0.083439,0.000000
4435,0.073172,-0.074405,-0.031480
4436,0.077846,-0.084193,-0.012621
4437,0.060859,-0.068786,0.000000
4438,0.099025,-0.098958,-0.037851
4439,0.095345,-0.083485,-0.054990
4440,0.089766,-0.091952,-0.031547
4441,0.095333,-0.102009,0.000000
4442,0.107253,-0.109769,-0.018925
4443,1.505897,-0.220995,-0.519590
4444,1.463618,-0.149899,-0.539268
4445,1.564704,-0.211541,-0.530181
4446,1.484758,-0.185447,-0.529429
4447,1.482795,-0.126357,-0.547002
4448,1.388608,-0.238793,-0.495806
4449,1.383866,-0.122424,-0.535933
4450,1.386237,-0.180608,-0.515869
4451,1.423742,-0.136161,-0.537600
4452,1.447252,-0.229894,-0.507698
4453,1.383273,-0.061212,-0.542709
4454,1.254880,-0.220576,-0.483721
4455,1.265733,-0.275490,-0.456504
4456,1.188255,-0.210805,-0.476232
4457,1.260307,-0.248033,-0.470113
4458,1.235169,-0.284150,-0.445386
4459,1.338578,-0.310625,-0.446035
4460,1.363593,-0.274709,-0.470920
4461,1.302156,-0.293057,-0.451269
4462,1.321744,-0.229684,-0.489764
4463,1.314535,-0.342479,-0.415331
4464,1.937271,-0.174585,-0.578574
4465,1.954627,-0.215611,-0.564204
4466,1.956711,-0.142779,-0.587718
4467,1.864371,-0.151582,-0.579314
4468,1.862766,-0.222439,-0.550493
4469,1.900821,-0.163084,-0.578944
4470,1.867510,-0.075791,-0.589255
4471,1.783889,-0.169200,-0.567538
4472,1.765039,-0.135993,-0.573702
4473,1.763005,-0.208954,-0.550467
4474,1.824130,-0.160391,-0.573426
4475,3.638080,-0.624120,-0.219376
4476,3.651836,-0.644906,-0.148077
4477,3.578829,-0.618597,-0.232152
4478,3.644958,-0.634513,-0.183727
4479,3.625648,-0.647074,-0.136397
4480,3.684934,-0.649973,-0.122912
4481,3.697337,-0.628989,-0.206370
4482,3.900756,-0.649309,-0.138006
4483,3.879432,-0.631300,-0.204770
4484,3.936807,-0.652242,-0.123765
4485,3.890094,-0.640304,-0.171388
4486,3.940851,-0.629838,-0.210414
4487,3.875388,-0.652737,-0.117880
4488,3.818013,-0.632579,-0.199067
4489,3.681020,-0.598787,-0.282162
4490,3.662151,-0.587554,-0.303436
4491,3.659550,-0.611453,-0.250769
4492,3.761763,-0.590557,-0.300608
4493,3.764435,-0.559893,-0.349629
4494,3.721392,-0.594672,-0.291385
4495,3.759179,-0.612208,-0.246986
4496,3.841927,-0.604682,-0.272762
4497,3.860679,-0.617991,-0.238766
4498,3.863278,-0.595396,-0.292004
4499,3.801845,-0.597620,-0.286685
4500,0.760768,-0.127988,-0.411524
4501,0.786931,-0.188308,-0.395400
4502,0.727486,-0.106952,-0.407199
4503,0.773849,-0.158148,-0.403462
4504,0.732398,-0.178267,-0.382990
4505,0.782001,-0.117125,-0.420404
4506,0.841998,-0.197479,-0.405988
4507,1.009020,-0.204528,-0.444144
4508,0.979396,-0.138984,-0.462560
4509,1.065325,-0.202781,-0.456443
4510,0.994208,-0.171756,-0.453352
4511,1.000586,-0.120873,-0.471611
4512,0.944167,-0.122494,-0.459073
4513,0.953042,-0.205588,-0.430360
4514,1.786259,-0.567507,-0.170010
4515,1.765972,-0.550358,-0.209932
4516,1.767599,-0.573760,-0.136682
4517,1.865167,-0.579205,-0.152244
4518,1.863971,-0.550173,-0.223369
4519,1.825713,-0.573356,-0.161127
4520,1.867908,-0.589200,-0.076122
4521,1.937797,-0.578502,-0.174957
4522,1.956970,-0.587690,-0.142917
4523,1.955287,-0.564075,-0.216062
4524,1.901482,-0.578854,-0.163601
4525,0.871606,-0.366280,-0.276609
4526,0.877671,-0.319984,-0.331011
4527,0.917217,-0.321702,-0.341878
4528,0.908688,-0.388620,-0.258195
4529,0.874638,-0.343132,-0.303810
4530,0.897444,-0.320843,-0.336445
4531,0.931494,-0.366331,-0.290830
4532,0.799350,-0.315162,-0.308566
4533,0.846663,-0.264605,-0.367701
4534,0.823006,-0.289883,-0.338133
4535,0.862167,-0.292294,-0.349356
4536,0.835478,-0.340721,-0.292587
4537,0.907141,-0.264176,-0.379227
4538,0.871864,-0.235627,-0.392138
4539,0.789597,-0.233728,-0.371125
4540,0.736544,-0.245942,-0.345527
4541,0.788264,-0.211018,-0.383263
4542,0.763070,-0.239835,-0.358326
4543,0.707204,-0.207084,-0.358053
4544,0.818130,-0.249167,-0.369413
4545,0.767947,-0.280552,-0.327047
4546,0.712680,-0.262060,-0.324692
4547,0.724612,-0.254001,-0.335110
4548,0.691417,-0.247619,-0.327618
4549,0.732704,-0.303417,-0.294720
4550,0.766027,-0.309289,-0.301643
4551,0.722692,-0.282739,-0.309706
4552,0.699606,-0.296978,-0.287247
4553,2.912359,-0.584280,-0.282344
4554,2.953185,-0.537196,-0.365673
4555,3.005992,-0.562726,-0.327654
4556,3.012075,-0.594987,-0.265134
4557,2.932772,-0.560738,-0.324008
4558,2.979589,-0.549961,-0.346663
4559,3.009034,-0.578857,-0.296394
4560,2.962217,-0.589634,-0.273739
4561,2.994359,-0.478488,-0.441070
4562,3.052857,-0.550408,-0.349875
4563,3.023608,-0.514448,-0.395473
4564,3.029425,-0.556567,-0.338765
4565,2.973772,-0.507842,-0.403371
4566,3.061944,-0.599936,-0.256348
4567,3.082335,-0.577646,-0.298719
4568,2.787585,-0.457783,-0.454747
4569,2.849725,-0.528303,-0.373701
4570,2.798380,-0.554417,-0.330989
4571,2.741426,-0.537414,-0.354741
4572,2.818655,-0.493043,-0.414224
4573,2.824052,-0.541360,-0.352345
4574,2.769903,-0.545916,-0.342865
4575,2.764506,-0.497598,-0.404744
4576,2.804196,-0.590558,-0.261744
4577,2.858278,-0.587419,-0.272044
4578,2.801288,-0.572488,-0.296367
4579,2.881042,-0.556291,-0.328022
4580,2.718745,-0.566627,-0.297721
4581,2.750130,-0.593199,-0.251222
4582,3.097469,-0.322384,-0.568098
4583,3.041314,-0.261238,-0.597439
4584,3.135934,-0.328058,-0.565688
4585,3.069392,-0.291811,-0.582768
4586,3.090168,-0.241468,-0.606439
4587,3.076840,-0.369561,-0.537988
4588,3.143531,-0.401709,-0.514529
4589,3.087155,-0.345972,-0.553043
4590,2.943677,-0.299509,-0.576545
4591,2.992495,-0.280374,-0.586992
4592,3.010259,-0.334535,-0.557267
4593,2.742634,-0.359210,-0.534475
4594,2.809637,-0.339594,-0.549562
4595,2.865418,-0.383267,-0.521926
4596,2.765110,-0.408496,-0.494611
4597,2.776136,-0.349402,-0.542019
4598,2.837527,-0.361431,-0.535744
4599,2.826502,-0.420525,-0.488337
4600,2.821048,-0.273441,-0.585760
4601,2.759757,-0.260055,-0.589617
4602,2.815342,-0.306517,-0.567661
4603,2.720550,-0.302940,-0.563975
4604,2.904548,-0.341388,-0.549236
4605,2.882362,-0.286475,-0.581152
4606,2.833766,-0.621910,-0.177897
4607,2.818981,-0.606234,-0.219820
4608,2.814213,-0.627927,-0.150263
4609,2.902734,-0.632347,-0.144832
4610,2.907547,-0.608314,-0.213588
4611,2.868250,-0.627129,-0.161364
4612,2.898352,-0.640362,-0.072416
4613,2.972399,-0.625020,-0.180241
4614,2.987499,-0.631930,-0.153212
4615,2.992237,-0.610004,-0.222687
4616,2.937566,-0.628683,-0.162536
4617,2.844971,-0.186169,-0.619814
4618,2.820407,-0.155982,-0.626587
4619,2.833009,-0.229805,-0.602787
4620,2.918344,-0.154171,-0.630558
4621,2.906157,-0.077085,-0.639467
4622,2.881657,-0.170170,-0.625186
4623,2.931010,-0.226840,-0.603551
4624,2.991906,-0.177379,-0.626323
4625,3.016610,-0.219308,-0.611881
4626,3.004086,-0.144967,-0.634007
4627,2.955125,-0.165775,-0.628440
4628,1.332571,-0.520756,-0.153356
4629,1.321195,-0.505528,-0.189401
4630,1.313578,-0.523988,-0.128974
4631,1.394601,-0.536566,-0.125868
4632,1.402409,-0.516159,-0.185537
4633,1.363586,-0.528661,-0.139612
4634,1.388640,-0.543026,-0.062934
4635,1.472628,-0.539640,-0.152546
4636,1.488672,-0.547294,-0.127972
4637,1.496043,-0.529644,-0.188652
4638,1.433615,-0.538103,-0.139207
4639,2.382084,-0.447414,-0.443677
4640,2.473888,-0.452160,-0.444601
4641,2.448208,-0.509030,-0.376419
4642,2.389618,-0.532053,-0.338391
4643,2.427986,-0.449787,-0.444139
4644,2.461048,-0.480595,-0.410510
4645,2.418913,-0.520542,-0.357405
4646,2.385851,-0.489734,-0.391034
4647,2.565708,-0.456632,-0.445257
4648,2.481504,-0.536418,-0.338976
4649,2.523606,-0.496525,-0.392116
4650,2.464856,-0.522724,-0.357698
4651,2.519798,-0.454396,-0.444929
4652,2.394044,-0.562219,-0.277997
4653,2.439987,-0.564401,-0.278290
4654,2.552957,-0.558693,-0.306921
4655,2.630458,-0.536370,-0.349601
4656,2.550102,-0.576653,-0.268133
4657,2.591708,-0.547531,-0.328261
4658,2.663261,-0.566105,-0.295151
4659,2.517231,-0.547555,-0.322948
4660,2.598083,-0.496501,-0.397429
4661,2.682748,-0.512281,-0.386942
4662,2.656603,-0.524325,-0.368271
4663,2.712087,-0.524848,-0.370841
4664,2.676639,-0.457372,-0.450164
4665,2.621174,-0.457002,-0.447710
4666,2.679693,-0.484827,-0.418553
4667,2.732112,-0.457577,-0.452455
4668,2.631626,-0.358984,-0.530169
4669,2.554439,-0.314713,-0.554393
4670,2.665046,-0.302827,-0.561822
4671,2.593032,-0.336849,-0.542281
4672,2.551981,-0.274566,-0.573558
4673,2.482531,-0.347603,-0.530905
4674,2.524119,-0.402117,-0.488081
4675,2.518485,-0.331158,-0.542649
4676,2.598667,-0.407808,-0.487713
4677,2.441576,-0.284682,-0.560924
4678,2.390692,-0.342481,-0.529480
4679,2.448901,-0.383333,-0.503871
4680,2.386388,-0.394948,-0.486579
4681,2.419796,-0.362907,-0.516676
4682,2.461394,-0.417746,-0.474236
4683,2.465716,-0.365468,-0.517388
4684,2.395657,-0.282121,-0.560212
4685,2.683538,-0.394058,-0.506851
4686,2.713086,-0.376634,-0.520663
4687,2.657582,-0.376521,-0.518510
4688,2.680088,-0.425715,-0.478508
4689,2.305151,-0.406025,-0.477034
4690,2.336574,-0.349117,-0.522064
4691,2.343618,-0.426720,-0.460355
4692,2.320863,-0.377571,-0.499549
4693,2.363633,-0.345799,-0.525772
4694,2.228457,-0.361534,-0.506751
4695,2.314268,-0.294237,-0.553705
4696,2.271363,-0.327885,-0.530228
4697,2.325421,-0.321677,-0.537885
4698,2.266804,-0.383779,-0.491893
4699,2.357445,-0.257999,-0.572324
4700,2.237122,-0.269359,-0.561861
4701,2.155476,-0.292332,-0.545055
4702,2.239474,-0.244787,-0.572529
4703,2.196299,-0.280846,-0.553458
4704,2.119290,-0.255253,-0.559600
4705,2.275695,-0.281798,-0.557783
4706,2.191967,-0.326933,-0.525903
4707,2.304945,-0.479126,-0.403541
4708,2.279225,-0.442928,-0.441105
4709,2.343515,-0.463270,-0.423609
4710,2.292085,-0.461027,-0.422323
4711,2.292188,-0.424477,-0.459069
4712,2.228029,-0.507435,-0.360536
4713,2.227782,-0.440531,-0.439678
4714,2.227905,-0.473983,-0.400107
4715,2.253503,-0.441730,-0.440391
4716,2.266487,-0.493281,-0.382038
4717,2.228120,-0.401032,-0.473215
4718,2.116226,-0.342394,-0.512192
4719,2.135851,-0.317363,-0.528623
4720,2.088159,-0.337378,-0.513399
4721,2.133496,-0.398223,-0.471373
4722,2.180977,-0.379879,-0.489062
4723,2.124861,-0.370309,-0.491782
4724,2.086155,-0.415047,-0.451886
4725,2.164758,-0.437812,-0.437423
4726,2.133277,-0.471512,-0.398038
4727,2.149127,-0.418018,-0.454398
4728,2.149018,-0.454662,-0.417731
4729,2.086046,-0.451692,-0.415219
4730,2.196270,-0.439171,-0.438551
4731,2.180653,-0.489474,-0.379287
4732,2.116073,-0.512310,-0.342201
4733,2.155256,-0.545377,-0.291706
4734,2.088075,-0.513382,-0.337397
4735,2.135664,-0.528843,-0.316953
4736,2.119170,-0.559795,-0.254849
4737,2.124675,-0.491911,-0.370120
4738,2.191642,-0.526406,-0.326121
4739,2.335714,-0.524030,-0.346091
4740,2.362666,-0.528042,-0.342241
4741,2.320330,-0.501578,-0.374816
4742,2.312967,-0.554960,-0.291732
4743,2.355718,-0.573672,-0.254668
4744,2.324340,-0.539495,-0.318912
4745,2.270498,-0.531198,-0.326134
4746,2.236252,-0.562656,-0.267592
4747,2.195754,-0.554016,-0.279649
4748,2.238496,-0.573304,-0.242817
4749,2.274609,-0.558808,-0.279662
4750,1.510258,-0.284657,-0.488115
4751,1.540827,-0.295843,-0.485225
4752,1.508078,-0.252826,-0.503852
4753,1.454357,-0.323065,-0.455501
4754,1.488173,-0.360688,-0.428999
4755,1.482308,-0.303861,-0.471808
4756,1.421482,-0.280929,-0.475653
4757,1.399464,-0.341495,-0.433150
4758,1.369021,-0.326060,-0.439592
4759,1.402794,-0.364229,-0.413683
4760,1.426910,-0.332280,-0.444325
4761,1.189952,-0.159361,-0.496608
4762,1.255916,-0.186561,-0.498027
4763,1.155791,-0.180198,-0.482675
4764,1.222934,-0.172961,-0.497317
4765,1.255398,-0.203568,-0.490874
4766,1.259121,-0.116087,-0.519488
4767,1.323332,-0.178701,-0.511251
4768,1.291227,-0.147394,-0.515369
4769,1.289624,-0.182631,-0.504639
4770,1.224537,-0.137724,-0.508048
4771,1.355970,-0.208747,-0.503528
4772,1.342195,-0.120353,-0.530701
4773,1.320413,-0.058416,-0.537950
4774,1.363030,-0.121388,-0.533317
4775,1.331304,-0.089384,-0.534325
4776,1.351546,-0.029208,-0.543718
4777,1.332764,-0.149527,-0.520976
4778,1.289767,-0.087251,-0.528719
4779,1.175521,-0.107182,-0.507999
4780,1.154621,-0.104871,-0.504883
4781,1.182736,-0.133271,-0.502303
4782,1.203701,-0.058412,-0.520428
4783,1.176523,-0.029206,-0.517579
4784,1.189611,-0.082797,-0.514213
4785,1.231411,-0.087250,-0.519958
4786,1.263191,-0.038950,-0.531411
4787,1.291802,-0.048683,-0.534681
4788,1.263674,-0.019475,-0.532186
4789,1.233446,-0.048681,-0.525920
4790,0.462965,-0.272393,-0.185502
4791,0.408900,-0.243895,-0.184100
4792,0.408465,-0.218935,-0.212858
4793,0.489226,-0.262022,-0.214978
4794,0.435932,-0.258144,-0.184801
4795,0.408682,-0.231415,-0.198479
4796,0.461977,-0.235293,-0.228656
4797,0.415088,-0.284071,-0.120364
4798,0.357492,-0.236618,-0.150869
4799,0.386290,-0.260344,-0.135616
4800,0.383196,-0.240256,-0.167484
4801,0.439026,-0.278232,-0.152933
4802,0.356677,-0.199915,-0.194472
4803,0.331191,-0.208757,-0.163477
4804,0.352192,-0.258208,-0.102937
4805,0.381928,-0.286370,-0.061243
4806,0.336568,-0.251166,-0.098239
4807,0.367060,-0.272289,-0.082090
4808,0.367827,-0.282540,-0.030622
4809,0.354842,-0.247413,-0.126903
4810,0.398508,-0.285220,-0.090803
4811,0.478109,-0.310839,-0.127498
4812,0.494252,-0.317212,-0.129083
4813,0.470537,-0.291616,-0.156500
4814,0.466295,-0.325300,-0.061378
4815,0.494628,-0.339548,-0.030689
4816,0.472202,-0.318070,-0.094438
4817,0.440692,-0.304686,-0.090871
4818,0.427832,-0.311616,-0.040915
4819,0.432493,-0.316346,0.000000
4820,0.404880,-0.298993,-0.051079
4821,0.430163,-0.313981,-0.020457
4822,0.393109,-0.297529,0.000000
4823,0.447064,-0.318458,-0.051146
4824,0.477727,-0.335070,0.000000
4825,0.381278,-0.062989,-0.285668
4826,0.351484,-0.106041,-0.256552
4827,0.367502,-0.031495,-0.282189
4828,0.366381,-0.084515,-0.271110
4829,0.335924,-0.101278,-0.249586
4830,0.414068,-0.123671,-0.282131
4831,0.356839,-0.155157,-0.233421
4832,0.385454,-0.139414,-0.257776
4833,0.354162,-0.130599,-0.244987
4834,0.397673,-0.093330,-0.283900
4835,0.330864,-0.168026,-0.204754
4836,0.408408,-0.189518,-0.239410
4837,0.462265,-0.191108,-0.268116
4838,0.408437,-0.204227,-0.226134
4839,0.435337,-0.190313,-0.253763
4840,0.488877,-0.221379,-0.256285
4841,0.382624,-0.172338,-0.236416
4842,0.438167,-0.157389,-0.275124
4843,0.427362,-0.042078,-0.311249
4844,0.429927,-0.021039,-0.313797
4845,0.404320,-0.052534,-0.298458
4846,0.465630,-0.063136,-0.324679
4847,0.494295,-0.031568,-0.339237
4848,0.446496,-0.052607,-0.317964
4849,0.439849,-0.093404,-0.303405
4850,0.477298,-0.131638,-0.308740
4851,0.469781,-0.161373,-0.288428
4852,0.493510,-0.133432,-0.315078
4853,0.471464,-0.097387,-0.316710
4854,3.268088,-0.500619,-0.424396
4855,3.215860,-0.541609,-0.369142
4856,3.160684,-0.533296,-0.379242
4857,3.239154,-0.467237,-0.457733
4858,3.241974,-0.521114,-0.396769
4859,3.188272,-0.537453,-0.374192
4860,3.185453,-0.483576,-0.435157
4861,3.326185,-0.557070,-0.348969
4862,3.218953,-0.583228,-0.299424
4863,3.272569,-0.570149,-0.324197
4864,3.217406,-0.562418,-0.334283
4865,3.297136,-0.528845,-0.386682
4866,3.136248,-0.569090,-0.313402
4867,3.165382,-0.594056,-0.273493
4868,3.408938,-0.626797,-0.202647
4869,3.381287,-0.607659,-0.253232
4870,3.422844,-0.587520,-0.298194
4871,3.464259,-0.619936,-0.223788
4872,3.395113,-0.617228,-0.227939
4873,3.402065,-0.597589,-0.275713
4874,3.471211,-0.600297,-0.271562
4875,3.298344,-0.637422,-0.159362
4876,3.312133,-0.604754,-0.257368
4877,3.305238,-0.621088,-0.208365
4878,3.346710,-0.606206,-0.255300
4879,3.353641,-0.632110,-0.181004
4880,3.374514,-0.572295,-0.323582
4881,3.319159,-0.580912,-0.303168
4882,3.351464,-0.486150,-0.442885
4883,3.357844,-0.465514,-0.463737
4884,3.309776,-0.493384,-0.433641
4885,3.422138,-0.510256,-0.416556
4886,3.470187,-0.482844,-0.447075
4887,3.386801,-0.498203,-0.429721
4888,3.374162,-0.533663,-0.382762
4889,3.454530,-0.550388,-0.362801
4890,3.438687,-0.568954,-0.330498
4891,3.486626,-0.548567,-0.366266
4892,3.438334,-0.530322,-0.389678
4893,3.102269,-0.456867,-0.466780
4894,3.049264,-0.408340,-0.508350
4895,3.156245,-0.445361,-0.478925
4896,3.075766,-0.432603,-0.487565
4897,3.063052,-0.388950,-0.523169
4898,2.968782,-0.394907,-0.516521
4899,2.981570,-0.436697,-0.478795
4900,3.009023,-0.401623,-0.512435
4901,3.048314,-0.467677,-0.453925
4902,2.956229,-0.347208,-0.546533
4903,2.908335,-0.417008,-0.496834
4904,2.890965,-0.468332,-0.448096
4905,2.886876,-0.400138,-0.509380
4906,2.899650,-0.442670,-0.472465
4907,2.839275,-0.463057,-0.451422
4908,2.938558,-0.405957,-0.506677
4909,2.942662,-0.473410,-0.444583
4910,3.105202,-0.515699,-0.400990
4911,3.132943,-0.524498,-0.390116
4912,3.103736,-0.486283,-0.433885
4913,3.079030,-0.533053,-0.375433
4914,2.897911,-0.512537,-0.397135
4915,2.894438,-0.490434,-0.422615
4916,2.873818,-0.520420,-0.385418
4917,2.925548,-0.524866,-0.381404
4918,0.122595,-0.064751,-0.108912
4919,0.131025,-0.063350,-0.117666
4920,0.111116,-0.050100,-0.104674
4921,0.132202,-0.093715,-0.096853
4922,0.153405,-0.105784,-0.108407
4923,0.127398,-0.079233,-0.102882
4924,0.111934,-0.080863,-0.084491
4925,0.122254,-0.107104,-0.067145
4926,0.110639,-0.103031,-0.052498
4927,0.130737,-0.116345,-0.065170
4928,0.127228,-0.100409,-0.081999
4929,0.817631,-0.377429,-0.237293
4930,0.823099,-0.390102,-0.217445
4931,0.844618,-0.371854,-0.256951
4932,0.753901,-0.358831,-0.235077
4933,0.733460,-0.373737,-0.193782
4934,0.785766,-0.368130,-0.236185
4935,0.776625,-0.336996,-0.271821
4936,0.724206,-0.337277,-0.251294
4937,0.728455,-0.320347,-0.273007
4938,0.705881,-0.341518,-0.235680
4939,0.739053,-0.348054,-0.243185
4940,1.032136,-0.257356,-0.421032
4941,1.066244,-0.269436,-0.420841
4942,1.020578,-0.230942,-0.432588
4943,0.988198,-0.283580,-0.393029
4944,1.035155,-0.318066,-0.375753
4945,1.010167,-0.270468,-0.407031
4946,0.942631,-0.245115,-0.404802
4947,0.972203,-0.332593,-0.347904
4948,0.944710,-0.327148,-0.344891
4949,0.992610,-0.359004,-0.324952
4950,0.980200,-0.308087,-0.370467
4951,3.214018,-0.174368,-0.631974
4952,3.291968,-0.200077,-0.625733
4953,3.176520,-0.198033,-0.623706
4954,3.252993,-0.187222,-0.628853
4955,3.292716,-0.218100,-0.619393
4956,3.289088,-0.125981,-0.644674
4957,3.368455,-0.189054,-0.630412
4958,3.328772,-0.157517,-0.637543
4959,3.330212,-0.194565,-0.628073
4960,3.251553,-0.150174,-0.638324
4961,3.408188,-0.219655,-0.620163
4962,3.384520,-0.127022,-0.645992
4963,3.352958,-0.063284,-0.654774
4964,3.408385,-0.127280,-0.646288
4965,3.368739,-0.095153,-0.650383
4966,3.384940,-0.031642,-0.656750
4967,3.376488,-0.158038,-0.638202
4968,3.321023,-0.094632,-0.649724
4969,3.194188,-0.117066,-0.644646
4970,3.170459,-0.114794,-0.644585
4971,3.204103,-0.145717,-0.638310
4972,3.221900,-0.063285,-0.652582
4973,3.188362,-0.031643,-0.653463
4974,3.208044,-0.090176,-0.648614
4975,3.255494,-0.094633,-0.648628
4976,3.286898,-0.042172,-0.655395
4977,3.319928,-0.052728,-0.655085
4978,3.286160,-0.021086,-0.656050
4979,3.254399,-0.052729,-0.653989
4980,3.205045,-0.622860,-0.204022
4981,3.188167,-0.640517,-0.137417
4982,3.158428,-0.613872,-0.225792
4983,3.196606,-0.631689,-0.170719
4984,3.160619,-0.641124,-0.131785
4985,3.226495,-0.650810,-0.080284
4986,3.262419,-0.644116,-0.119823
4987,3.207331,-0.645664,-0.108850
4988,3.251694,-0.630141,-0.181692
4989,3.190659,-0.652577,-0.040142
4990,3.285421,-0.656705,0.000000
4991,3.289956,-0.654630,-0.053481
4992,3.357558,-0.652997,-0.080281
4993,3.351172,-0.657716,0.000000
4994,3.287688,-0.655668,-0.026741
4995,3.323757,-0.653814,-0.066881
4996,3.387240,-0.655862,-0.040141
4997,3.258225,-0.652720,-0.066883
4998,3.220123,-0.655524,0.000000
4999,3.327951,-0.645210,-0.119822
5000,3.245350,-0.604910,-0.254119
5001,3.232151,-0.594069,-0.276772
5002,3.225197,-0.613885,-0.229071
5003,3.278741,-0.604832,-0.255744
5004,3.411498,-0.644469,-0.136465
5005,3.384528,-0.648733,-0.108373
5006,3.439796,-0.646048,-0.130589
5007,3.410218,-0.635633,-0.169556
5008,0.998812,-0.451581,-0.182178
5009,0.972992,-0.465690,-0.122983
5010,0.972291,-0.431270,-0.210979
5011,0.985902,-0.458636,-0.152580
5012,0.952751,-0.461072,-0.123502
5013,1.053893,-0.482849,-0.120793
5014,0.989214,-0.481120,-0.060891
5015,1.021554,-0.481984,-0.090842
5016,0.981103,-0.473405,-0.091937
5017,1.026353,-0.467215,-0.151486
5018,0.957686,-0.476317,-0.030445
5019,1.035114,-0.494043,0.000000
5020,1.042344,-0.493793,-0.040597
5021,1.100920,-0.502667,-0.060862
5022,1.092230,-0.504386,0.000000
5023,1.038729,-0.493918,-0.020299
5024,1.071632,-0.498230,-0.050730
5025,1.125133,-0.508698,-0.030431
5026,1.015779,-0.487456,-0.050744
5027,0.980636,-0.482779,0.000000
5028,1.077406,-0.492758,-0.090828
5029,1.068971,-0.463019,-0.190151
5030,1.073096,-0.456264,-0.206859
5031,1.033892,-0.457300,-0.186164
5032,1.131434,-0.484943,-0.163497
5033,1.170569,-0.483993,-0.184175
5034,1.100203,-0.473981,-0.176824
5035,1.092664,-0.483896,-0.142145
5036,1.136397,-0.500643,-0.110106
5037,1.118659,-0.501655,-0.085484
5038,1.157119,-0.504795,-0.107295
5039,1.133916,-0.492793,-0.136802
5040,4.267042,-0.352043,-0.564853
5041,4.225622,-0.398883,-0.532537
5042,4.264543,-0.317814,-0.583538
5043,4.246332,-0.375463,-0.548695
5044,4.199893,-0.356733,-0.559363
5045,4.290266,-0.361310,-0.558940
5046,4.251380,-0.436545,-0.499731
5047,4.172802,-0.440834,-0.498025
5048,4.172179,-0.495233,-0.443962
5049,4.146718,-0.431921,-0.505494
5050,4.172490,-0.468033,-0.470994
5051,4.119702,-0.505172,-0.431965
5052,4.199212,-0.419859,-0.515281
5053,4.224658,-0.484720,-0.455443
5054,4.352907,-0.530562,-0.402216
5055,4.371857,-0.543234,-0.384441
5056,4.368273,-0.502372,-0.434818
5057,4.284298,-0.555872,-0.366131
5058,4.287920,-0.586178,-0.308783
5059,4.318602,-0.543217,-0.384174
5060,4.280718,-0.515040,-0.416528
5061,4.211932,-0.542773,-0.384776
5062,4.192055,-0.519003,-0.414369
5063,4.195643,-0.557448,-0.362121
5064,4.248115,-0.549323,-0.375454
5065,0.025270,-0.021575,0.021575
5066,0.022291,-0.022576,0.010788
5067,0.022291,-0.010788,0.022576
5068,0.038589,-0.032175,0.032175
5069,0.042561,-0.043154,0.016088
5070,0.031929,-0.026875,0.026875
5071,0.042561,-0.016088,0.043154
5072,4.500217,-0.114863,0.656351
5073,4.578493,-0.076443,0.662028
5074,4.485461,-0.057431,0.661262
5075,4.539355,-0.095653,0.659190
5076,4.590733,-0.038222,0.664220
5077,4.529768,-0.226293,0.626816
5078,4.632395,-0.114866,0.656571
5079,4.581082,-0.170580,0.641694
5080,4.605444,-0.095655,0.659300
5081,4.514992,-0.170578,0.641584
5082,4.683722,-0.057433,0.661567
5083,5.000000,-0.222791,0.628470
5084,4.867521,-0.113032,0.657082
5085,4.816836,-0.186923,0.640012
5086,4.857740,-0.275077,0.607333
5087,4.933760,-0.167911,0.642776
5088,4.842178,-0.149977,0.648547
5089,4.837288,-0.231000,0.623672
5090,4.928870,-0.248934,0.617901
5091,4.725246,-0.168133,0.645131
5092,4.730147,-0.084067,0.655846
5093,4.771041,-0.177528,0.642571
5094,4.801285,-0.056516,0.661822
5095,4.715482,-0.325354,0.581768
5096,4.786611,-0.300216,0.594550
5097,4.720364,-0.246744,0.613449
5098,4.788010,-0.380072,0.547565
5099,4.858672,-0.330096,0.579192
5100,4.751746,-0.352713,0.564667
5101,4.823341,-0.355084,0.563379
5102,4.858206,-0.302586,0.593262
5103,4.860542,-0.431223,0.508236
5104,4.930269,-0.332484,0.577845
5105,4.895405,-0.381854,0.543040
5106,4.894470,-0.331290,0.578519
5107,4.824276,-0.405648,0.527900
5108,4.965134,-0.277638,0.603157
5109,4.867521,-0.657082,0.113032
5110,4.823756,-0.638407,0.192348
5111,4.735627,-0.642940,0.176369
5112,4.801285,-0.661822,0.056516
5113,4.845639,-0.647744,0.152690
5114,4.779692,-0.640673,0.184359
5115,4.735338,-0.654751,0.088185
5116,5.000000,-0.628470,0.222791
5117,4.868122,-0.603764,0.282814
5118,4.934061,-0.616117,0.252803
5119,4.845939,-0.621085,0.237581
5120,4.933760,-0.642776,0.167911
5121,4.736246,-0.573261,0.340115
5122,4.735936,-0.608100,0.258242
5123,4.802184,-0.588512,0.311465
5124,5.000000,-0.588773,0.312796
5125,4.912081,-0.583633,0.322238
5126,5.000000,-0.608622,0.267793
5127,4.956040,-0.586203,0.317517
5128,4.890101,-0.593698,0.302526
5129,5.000000,-0.535881,0.396449
5130,4.868123,-0.555306,0.368772
5131,4.934061,-0.545593,0.382610
5132,4.890102,-0.569470,0.345505
5133,5.000000,-0.562327,0.354622
5134,4.802184,-0.564283,0.354443
5135,4.641393,-0.602257,0.285581
5136,4.672596,-0.637672,0.194350
5137,4.688820,-0.587759,0.312848
5138,4.656995,-0.619964,0.239965
5139,4.704111,-0.640306,0.185360
5140,4.546548,-0.626024,0.228559
5141,4.640785,-0.656375,0.116053
5142,4.593667,-0.641199,0.172306
5143,4.656691,-0.647023,0.155202
5144,4.593971,-0.614141,0.257070
5145,4.687917,-0.661468,0.058026
5146,4.911681,-0.075226,0.662451
5147,5.000000,-0.113803,0.656974
5148,4.889363,-0.037613,0.664547
5149,4.955840,-0.094514,0.659712
5150,5.000000,-0.056901,0.661820
5151,4.889601,-0.094129,0.659766
5152,5.000000,-0.168297,0.642722
5153,4.490138,-0.467861,0.474102
5154,4.613184,-0.524876,0.410490
5155,4.647270,-0.466114,0.476179
5156,4.602802,-0.400225,0.532741
5157,4.551661,-0.496369,0.442296
5158,4.630227,-0.495495,0.443334
5159,4.625036,-0.433170,0.504460
5160,4.546470,-0.434043,0.503422
5161,4.725844,-0.465173,0.477216
5162,4.731045,-0.519217,0.408665
5163,4.686557,-0.465644,0.476697
5164,4.674715,-0.549068,0.375302
5165,4.659142,-0.362789,0.557255
5166,4.720663,-0.395263,0.529492
5167,4.911681,-0.662451,0.075226
5168,4.889363,-0.664547,0.037613
5169,4.889601,-0.659766,0.094129
5170,5.000000,-0.656974,0.113803
5171,5.000000,-0.661820,0.056901
5172,4.955840,-0.659712,0.094514
5173,5.000000,-0.642722,0.168297
5174,3.840985,-0.648543,0.139487
5175,3.787158,-0.656379,0.092744
5176,3.892271,-0.656268,0.069744
5177,3.814071,-0.652461,0.116116
5178,3.799176,-0.659703,0.046372
5179,3.738645,-0.603768,0.272688
5180,3.708985,-0.647390,0.139475
5181,3.723815,-0.625579,0.206081
5182,3.748071,-0.651885,0.116110
5183,3.789815,-0.626156,0.206087
5184,3.694295,-0.654620,0.069738
5185,3.518236,-0.477595,0.455433
5186,3.364223,-0.484588,0.444879
5187,3.391990,-0.533750,0.385316
5188,3.482931,-0.553295,0.359052
5189,3.441230,-0.481092,0.450156
5190,3.378107,-0.509169,0.415097
5191,3.437461,-0.543522,0.372184
5192,3.500584,-0.515445,0.407242
5193,3.210221,-0.491071,0.433856
5194,3.328924,-0.558374,0.346967
5195,3.269573,-0.524722,0.390412
5196,3.360457,-0.546062,0.366142
5197,3.287222,-0.487830,0.439368
5198,3.447921,-0.609913,0.250256
5199,3.465426,-0.581604,0.304654
5200,3.388422,-0.584144,0.298612
5201,2.387516,-0.110503,0.620805
5202,2.469711,-0.073566,0.629847
5203,2.382486,-0.055252,0.625409
5204,2.428614,-0.092034,0.625326
5205,2.487479,-0.036783,0.632694
5206,2.398469,-0.217604,0.592385
5207,2.515999,-0.110554,0.626380
5208,2.457234,-0.164079,0.609382
5209,2.492855,-0.092060,0.628113
5210,2.392992,-0.164053,0.606595
5211,2.575169,-0.055277,0.633397
5212,2.698466,-0.593474,0.246670
5213,2.549523,-0.592722,0.234419
5214,2.577417,-0.618419,0.158743
5215,2.665978,-0.629164,0.125768
5216,2.623994,-0.593098,0.240545
5217,2.563470,-0.605571,0.196581
5218,2.621698,-0.623792,0.142256
5219,2.682222,-0.611319,0.186219
5220,2.400622,-0.590943,0.221762
5221,2.517060,-0.626036,0.112737
5222,2.458841,-0.608489,0.167249
5223,2.547239,-0.622227,0.135740
5224,2.475072,-0.591833,0.228090
5225,2.650158,-0.634789,0.062884
5226,2.575700,-0.633225,0.056368
5227,3.146730,-0.644525,0.112522
5228,3.062412,-0.648171,0.074905
5229,3.150777,-0.649434,0.056261
5230,3.104571,-0.646348,0.093714
5231,3.043477,-0.649879,0.037453
5232,3.139021,-0.615438,0.221698
5233,3.016267,-0.641691,0.112556
5234,3.077644,-0.628565,0.167127
5235,3.039339,-0.644931,0.093731
5236,3.142875,-0.629982,0.167110
5237,2.955118,-0.645034,0.056278
5238,4.052228,-0.659028,0.086685
5239,3.974958,-0.651389,0.130319
5240,4.063496,-0.661894,0.043343
5241,4.013593,-0.655208,0.108502
5242,3.959257,-0.657691,0.065160
5243,4.106593,-0.652130,0.130327
5244,4.156693,-0.658749,0.065164
5245,4.079410,-0.655579,0.108506
5246,4.006519,-0.613370,0.255574
5247,3.990738,-0.632379,0.192946
5248,4.056556,-0.632750,0.192950
5249,3.896152,-0.639079,0.179465
5250,3.935555,-0.645234,0.154892
5251,3.868569,-0.643811,0.159476
5252,3.872581,-0.608732,0.264201
5253,3.939550,-0.611051,0.259887
5254,3.884366,-0.623905,0.221833
5255,3.805613,-0.606250,0.268444
5256,4.067225,-0.419969,0.515111
5257,4.036761,-0.532635,0.397275
5258,4.082560,-0.552220,0.370072
5259,4.120633,-0.512962,0.423009
5260,4.051993,-0.476302,0.456193
5261,4.059660,-0.542427,0.383673
5262,4.101596,-0.532591,0.396540
5263,4.093929,-0.466465,0.469060
5264,4.090337,-0.600529,0.285435
5265,4.048428,-0.606949,0.270504
5266,4.086448,-0.576374,0.327754
5267,4.021640,-0.573002,0.326424
5268,4.174163,-0.586188,0.314583
5269,4.147398,-0.549575,0.368796
5270,4.132250,-0.593358,0.300009
5271,4.190395,-0.645352,0.162203
5272,4.129088,-0.636095,0.194471
5273,4.198594,-0.655360,0.081101
5274,4.159741,-0.640724,0.178337
5275,4.117840,-0.644113,0.162399
5276,4.109712,-0.618312,0.239953
5277,4.182279,-0.615770,0.238393
5278,2.083084,-0.217992,0.574214
5279,2.240739,-0.218041,0.583951
5280,2.200741,-0.147404,0.603413
5281,2.102031,-0.110807,0.605300
5282,2.161912,-0.218017,0.579083
5283,2.220740,-0.182723,0.593682
5284,2.151386,-0.129106,0.604356
5285,2.092557,-0.164400,0.589757
5286,2.259814,-0.110593,0.614441
5287,2.329142,-0.164098,0.603413
5288,2.230277,-0.128998,0.608927
5289,2.319604,-0.217823,0.588168
5290,2.112126,-0.055404,0.610899
5291,2.191018,-0.055296,0.615470
5292,2.388575,-0.620464,0.112686
5293,2.299629,-0.621806,0.075036
5294,2.383015,-0.625238,0.056343
5295,2.344102,-0.621135,0.093861
5296,2.274408,-0.622737,0.037518
5297,2.260871,-0.614102,0.112778
5298,2.330746,-0.602522,0.167270
5299,2.280250,-0.617954,0.093907
5300,2.394599,-0.605703,0.167224
5301,2.191546,-0.615300,0.056389
5302,1.707000,-0.068761,0.581265
5303,1.748940,-0.103355,0.580013
5304,1.726553,-0.034381,0.585040
5305,1.727970,-0.086058,0.580639
5306,1.809795,-0.051677,0.589604
5307,1.625475,-0.103236,0.568175
5308,1.624633,-0.051618,0.572700
5309,1.666237,-0.085998,0.574720
5310,1.629019,-0.203186,0.540954
5311,1.688980,-0.153270,0.560483
5312,1.627247,-0.153211,0.554564
5313,1.746189,-0.579866,0.102786
5314,1.705168,-0.581138,0.068382
5315,1.808419,-0.589530,0.051393
5316,1.725678,-0.580502,0.085584
5317,1.725637,-0.584977,0.034191
5318,1.623510,-0.540773,0.202088
5319,1.622727,-0.567997,0.102662
5320,1.623118,-0.554385,0.152375
5321,1.663947,-0.574568,0.085522
5322,1.684849,-0.560319,0.152437
5323,1.623259,-0.572611,0.051331
5324,0.320363,-0.242620,0.096515
5325,0.283522,-0.231552,0.064118
5326,0.337044,-0.260666,0.048257
5327,0.301942,-0.237086,0.080317
5328,0.280922,-0.234351,0.032059
5329,0.304890,-0.176086,0.180895
5330,0.252571,-0.199431,0.096342
5331,0.278731,-0.187759,0.138619
5332,0.268047,-0.215492,0.080230
5333,0.312627,-0.209353,0.138705
5334,0.234875,-0.198936,0.048171
5335,0.284019,-0.062179,0.232382
5336,0.320944,-0.093540,0.244124
5337,0.281171,-0.031089,0.234766
5338,0.302481,-0.077860,0.238253
5339,0.337334,-0.046770,0.261418
5340,0.253091,-0.093405,0.201186
5341,0.235135,-0.046702,0.199813
5342,0.268555,-0.077792,0.216784
5343,0.312917,-0.134813,0.212510
5344,0.278990,-0.134746,0.191041
5345,4.249122,-0.128113,0.653189
5346,4.322979,-0.085223,0.660369
5347,4.227958,-0.064056,0.659278
5348,4.286051,-0.106668,0.656779
5349,4.331098,-0.042612,0.663101
5350,4.291543,-0.251435,0.616484
5351,4.381090,-0.128117,0.653618
5352,4.336317,-0.189776,0.635051
5353,4.352035,-0.106670,0.656994
5354,4.270333,-0.189774,0.634836
5355,4.425898,-0.064058,0.659896
5356,4.278318,-0.653260,0.128295
5357,4.243573,-0.637009,0.193125
5358,4.242556,-0.659313,0.064147
5359,4.260946,-0.645134,0.160710
5360,4.216984,-0.641181,0.177664
5361,4.349930,-0.616543,0.251776
5362,4.262043,-0.602223,0.283584
5363,4.305986,-0.609383,0.267680
5364,4.252808,-0.619616,0.238354
5365,4.314124,-0.634902,0.190035
5366,4.218103,-0.594206,0.299084
5367,4.383638,-0.467419,0.474182
5368,4.372368,-0.526642,0.407416
5369,4.420000,-0.553451,0.370488
5370,4.436888,-0.467640,0.474142
5371,4.378003,-0.497031,0.440799
5372,4.396184,-0.540046,0.388952
5373,4.455069,-0.510656,0.422295
5374,4.277138,-0.466925,0.474207
5375,4.313490,-0.553027,0.370578
5376,4.295314,-0.509976,0.422392
5377,4.342929,-0.539834,0.388997
5378,4.330388,-0.467172,0.474194
5379,4.384965,-0.584997,0.311132
5380,4.331710,-0.584785,0.311177
5381,4.342443,-0.660414,0.085342
5382,4.340829,-0.663123,0.042671
5383,4.310381,-0.656837,0.106818
5384,4.410286,-0.653663,0.128293
5385,4.440496,-0.659918,0.064147
5386,4.376364,-0.657038,0.106818
5387,4.380108,-0.635103,0.190035
5388,1.245726,-0.069585,0.525656
5389,1.294585,-0.104591,0.527220
5390,1.254942,-0.034793,0.529308
5391,1.270156,-0.087088,0.526438
5392,1.338632,-0.052296,0.538353
5393,1.177841,-0.104485,0.508947
5394,1.163593,-0.052242,0.511838
5395,1.211783,-0.087035,0.517301
5396,1.209704,-0.204853,0.483043
5397,1.252145,-0.154722,0.505132
5398,1.193773,-0.154669,0.495995
5399,0.677864,-0.370579,0.168226
5400,0.594140,-0.313582,0.214090
5401,0.565699,-0.339254,0.147046
5402,0.597302,-0.371008,0.086156
5403,0.636002,-0.342080,0.191158
5404,0.579920,-0.326418,0.180568
5405,0.581501,-0.355131,0.116601
5406,0.637583,-0.370793,0.127191
5407,0.515488,-0.244453,0.251651
5408,0.509723,-0.321416,0.135226
5409,0.512606,-0.282935,0.193438
5410,0.537711,-0.330335,0.141136
5411,0.554814,-0.279018,0.232871
5412,0.560131,-0.362401,0.043078
5413,0.516342,-0.337606,0.067613
5414,3.718033,-0.097747,0.655040
5415,3.793198,-0.065088,0.659718
5416,3.698819,-0.048873,0.658445
5417,3.755615,-0.081417,0.657379
5418,3.802196,-0.032544,0.661372
5419,3.756595,-0.193364,0.633859
5420,3.850020,-0.097753,0.656165
5421,3.803307,-0.145558,0.645012
5422,3.821609,-0.081420,0.657942
5423,3.737314,-0.145555,0.644449
5424,3.896789,-0.048876,0.660079
5425,4.034691,-0.323047,0.580766
5426,3.945480,-0.349304,0.564684
5427,3.917165,-0.409463,0.522365
5428,4.050958,-0.371508,0.547939
5429,3.990085,-0.336176,0.572725
5430,3.931322,-0.379384,0.543525
5431,3.992195,-0.414716,0.518738
5432,4.002271,-0.216059,0.628377
5433,3.884629,-0.311246,0.586110
5434,3.943450,-0.263653,0.607244
5435,3.915055,-0.330275,0.575397
5436,4.018481,-0.269553,0.604572
5437,3.767107,-0.398650,0.529228
5438,3.842136,-0.404057,0.525797
5439,3.825868,-0.354948,0.557669
5440,3.628341,-0.548517,0.369349
5441,3.674520,-0.504270,0.428415
5442,3.642648,-0.439658,0.494055
5443,3.573288,-0.513056,0.412391
5444,3.651431,-0.526394,0.398882
5445,3.658584,-0.471964,0.461235
5446,3.580442,-0.458627,0.474744
5447,3.752694,-0.517267,0.413825
5448,3.745670,-0.560517,0.343256
5449,3.713607,-0.510768,0.421120
5450,3.683493,-0.576143,0.321019
5451,3.704877,-0.419154,0.511642
5452,3.759901,-0.457959,0.471527
5453,0.782918,-0.051737,0.433806
5454,0.817299,-0.077812,0.438975
5455,0.800491,-0.025869,0.439878
5456,0.800109,-0.064775,0.436390
5457,0.871729,-0.038906,0.455245
5458,0.712411,-0.077489,0.410044
5459,0.714070,-0.038744,0.414125
5460,0.747664,-0.064613,0.421925
5461,0.713020,-0.152487,0.388643
5462,0.765160,-0.115150,0.413809
5463,0.712716,-0.114988,0.399344
5464,0.139221,-0.063195,0.125586
5465,0.162757,-0.042166,0.153567
5466,0.127351,-0.031597,0.123083
5467,0.150989,-0.052680,0.139577
5468,0.160730,-0.021083,0.154827
5469,0.174608,-0.119960,0.117853
5470,0.188952,-0.063397,0.167139
5471,0.181780,-0.091678,0.142496
5472,0.175855,-0.052781,0.160353
5473,0.156915,-0.091577,0.121719
5474,0.203066,-0.031698,0.182789
5475,0.189248,-0.167842,0.062130
5476,0.162998,-0.153983,0.041338
5477,0.203214,-0.183141,0.031065
5478,0.176123,-0.160912,0.051734
5479,0.160851,-0.155035,0.020669
5480,0.139455,-0.126420,0.061949
5481,0.157032,-0.123190,0.089901
5482,0.151226,-0.140202,0.051643
5483,0.181928,-0.143901,0.089991
5484,0.127468,-0.123500,0.030974
5485,0.908938,-0.455585,0.106003
5486,0.843501,-0.446787,0.070668
5487,0.917548,-0.463550,0.053002
5488,0.876219,-0.451186,0.088335
5489,0.830782,-0.446368,0.035334
5490,0.897064,-0.416575,0.206649
5491,0.803234,-0.429284,0.106263
5492,0.850149,-0.422929,0.156456
5493,0.823367,-0.438035,0.088465
5494,0.903001,-0.436080,0.156326
5495,0.759482,-0.423744,0.053132
5496,3.538574,-0.082973,0.655139
5497,3.599460,-0.124718,0.649243
5498,3.543549,-0.041486,0.657785
5499,3.569017,-0.103845,0.652191
5500,3.639533,-0.062359,0.655546
5501,3.468093,-0.124713,0.647627
5502,3.442508,-0.062356,0.653176
5503,3.503334,-0.103843,0.651383
5504,3.519579,-0.244929,0.613075
5505,3.559520,-0.184823,0.631159
5506,3.493836,-0.184821,0.630351
5507,3.568159,-0.571869,0.330831
5508,3.525545,-0.562582,0.344941
5509,3.598250,-0.560193,0.350090
5510,3.593280,-0.607084,0.261577
5511,3.520600,-0.608499,0.255917
5512,3.580720,-0.589477,0.296204
5513,3.665962,-0.605426,0.267132
5514,3.621925,-0.637085,0.177633
5515,3.563617,-0.648280,0.127558
5516,3.665455,-0.642238,0.158554
5517,3.592771,-0.642683,0.152595
5518,3.621611,-0.655065,0.063779
5519,3.607602,-0.622085,0.219605
5520,3.505769,-0.629097,0.188907
5521,3.514677,-0.654607,0.084847
5522,3.539147,-0.651444,0.106203
5523,3.531601,-0.657519,0.042424
5524,3.432249,-0.646585,0.127538
5525,3.440085,-0.628249,0.188897
5526,3.473463,-0.650596,0.106192
5527,3.424586,-0.652656,0.063769
5528,2.664798,-0.122603,0.629745
5529,2.741122,-0.081579,0.638837
5530,2.649569,-0.061301,0.635080
5531,2.702960,-0.102091,0.634291
5532,2.752396,-0.040790,0.641751
5533,2.696064,-0.240701,0.595840
5534,2.794661,-0.122630,0.633943
5535,2.745363,-0.181665,0.614892
5536,2.767891,-0.102105,0.636390
5537,2.680431,-0.181652,0.612793
5538,2.844315,-0.061315,0.641159
5539,2.741905,-0.638593,0.083675
5540,2.752788,-0.641629,0.041838
5541,2.703942,-0.633879,0.104722
5542,2.795843,-0.633361,0.125795
5543,2.844907,-0.640868,0.062897
5544,2.768874,-0.635977,0.104735
5545,2.747155,-0.613418,0.186232
5546,1.521989,-0.402497,0.398311
5547,1.571395,-0.482336,0.307029
5548,1.618399,-0.462088,0.344895
5549,1.617569,-0.409092,0.406171
5550,1.546692,-0.442417,0.352670
5551,1.594897,-0.472212,0.325962
5552,1.617984,-0.435590,0.375533
5553,1.569779,-0.405795,0.402241
5554,1.667116,-0.488880,0.314816
5555,1.645313,-0.514826,0.258452
5556,1.642758,-0.475484,0.329855
5557,1.597453,-0.511554,0.254558
5558,1.713247,-0.414999,0.413348
5559,1.665408,-0.412045,0.409759
5560,1.690181,-0.451939,0.364082
5561,1.620207,-0.347437,0.460406
5562,1.574096,-0.310030,0.480750
5563,1.618888,-0.378264,0.433288
5564,1.597151,-0.328733,0.470578
5565,1.548043,-0.356264,0.439530
5566,1.669861,-0.316293,0.488238
5567,1.691554,-0.365646,0.450793
5568,1.645034,-0.331865,0.474322
5569,1.601557,-0.256608,0.510852
5570,1.649440,-0.259740,0.514596
5571,4.509923,-0.355353,0.563549
5572,4.437120,-0.321296,0.583513
5573,4.390807,-0.366667,0.555907
5574,4.500031,-0.411607,0.518826
5575,4.473521,-0.338325,0.573531
5576,4.413963,-0.343981,0.569710
5577,4.440473,-0.417264,0.515004
5578,4.410655,-0.238931,0.621823
5579,4.470212,-0.232612,0.624319
5580,4.423887,-0.280114,0.602668
5581,4.519846,-0.290823,0.595182
5582,4.341175,-0.309051,0.586195
5583,4.351099,-0.245183,0.619153
5584,4.430648,-0.161689,0.646286
5585,4.405869,-0.144903,0.649952
5586,4.465432,-0.138276,0.651319
5587,4.420651,-0.200310,0.634054
5588,4.578446,-0.345315,0.569913
5589,4.590624,-0.372770,0.551327
5590,4.544185,-0.350334,0.566731
5591,4.622622,-0.276763,0.606344
5592,4.669052,-0.301058,0.594056
5593,4.600534,-0.311039,0.588129
5594,4.576195,-0.251528,0.616580
5595,4.660082,-0.188138,0.639517
5596,4.692664,-0.178136,0.642324
5597,4.641352,-0.232450,0.622930
5598,4.646239,-0.151502,0.648044
5599,4.508607,-0.656160,0.116050
5600,4.455705,-0.646120,0.162592
5601,4.489656,-0.661166,0.058025
5602,4.482156,-0.651140,0.139321
5603,4.432995,-0.649891,0.145443
5604,4.448239,-0.621422,0.240221
5605,4.497393,-0.623723,0.234390
5606,4.451972,-0.633771,0.201407
5607,4.527578,-0.641092,0.172304
5608,4.399084,-0.618983,0.245999
5609,4.462176,-0.581727,0.324629
5610,4.518313,-0.560544,0.360092
5611,4.441088,-0.567589,0.347559
5612,4.490244,-0.571135,0.342360
5613,4.504225,-0.514203,0.417097
5614,4.455207,-0.601574,0.282425
5615,4.532430,-0.593284,0.294325
5616,4.584087,-0.661947,0.077230
5617,4.593530,-0.664179,0.038615
5618,4.546347,-0.659053,0.096640
5619,4.612436,-0.659161,0.096641
5620,4.590961,-0.564953,0.353386
5621,4.554637,-0.562748,0.356739
5622,4.602073,-0.544914,0.381938
5623,4.616177,-0.583605,0.319483
5624,1.976142,-0.110877,0.596879
5625,2.024697,-0.073782,0.605894
5626,1.923396,-0.055439,0.598037
5627,2.000420,-0.092329,0.601387
5628,2.010059,-0.036891,0.607116
5629,2.063364,-0.092295,0.605597
5630,2.029613,-0.164435,0.585546
5631,1.082112,-0.358476,0.352552
5632,1.186143,-0.372251,0.364128
5633,1.192580,-0.321818,0.410740
5634,1.144214,-0.287235,0.426038
5635,1.134127,-0.365364,0.358340
5636,1.189362,-0.347035,0.387434
5637,1.168397,-0.304526,0.418389
5638,1.113163,-0.322856,0.389295
5639,1.290492,-0.384627,0.374334
5640,1.248534,-0.300606,0.437199
5641,1.269513,-0.342617,0.405767
5642,1.220557,-0.311212,0.423970
5643,1.238318,-0.378439,0.369231
5644,1.176959,-0.246044,0.454541
5645,1.229119,-0.252730,0.460121
5646,1.100352,-0.420649,0.281517
5647,1.163370,-0.410493,0.314328
5648,1.091232,-0.389563,0.317035
5649,1.131861,-0.415571,0.297922
5650,1.174757,-0.391372,0.339228
5651,1.121630,-0.468743,0.201035
5652,1.204606,-0.434268,0.292810
5653,1.163118,-0.451505,0.246923
5654,1.183988,-0.422381,0.303569
5655,1.110991,-0.444696,0.241276
5656,1.247549,-0.409448,0.333572
5657,2.024703,-0.605887,0.073845
5658,1.976151,-0.596861,0.110973
5659,2.010062,-0.607112,0.036923
5660,2.000427,-0.601374,0.092409
5661,1.923400,-0.598028,0.055487
5662,2.102040,-0.605283,0.110904
5663,2.112130,-0.610891,0.055452
5664,2.063371,-0.605585,0.092375
5665,2.083104,-0.574146,0.218175
5666,2.029627,-0.585504,0.164574
5667,2.092572,-0.589714,0.164539
5668,3.053291,-0.083937,0.646871
5669,3.133070,-0.126153,0.641731
5670,3.038916,-0.041969,0.649229
5671,3.093180,-0.105045,0.644301
5672,3.143947,-0.063077,0.648037
5673,3.002600,-0.126183,0.638840
5674,2.948285,-0.063092,0.643608
5675,3.027945,-0.105060,0.642856
5676,3.111812,-0.247562,0.604884
5677,3.122441,-0.186858,0.623307
5678,3.057206,-0.186873,0.621862
5679,3.174398,-0.563278,0.333733
5680,3.265559,-0.580525,0.306374
5681,3.192310,-0.527174,0.383795
5682,3.219979,-0.571901,0.320054
5683,3.297241,-0.569449,0.326671
5684,3.293464,-0.613052,0.236122
5685,3.216243,-0.614245,0.228910
5686,3.279512,-0.596788,0.271248
5687,3.156710,-0.589358,0.277716
5688,3.370692,-0.611483,0.243189
5689,0.666507,-0.279773,0.290539
5690,0.687556,-0.220066,0.345759
5691,0.629104,-0.230184,0.316609
5692,0.590541,-0.263028,0.272041
5693,0.677032,-0.249920,0.318149
5694,0.658330,-0.225125,0.331184
5695,0.609823,-0.246606,0.294325
5696,0.628524,-0.271401,0.281290
5697,0.611268,-0.203156,0.327684
5698,0.662144,-0.177821,0.358164
5699,0.620186,-0.216670,0.322147
5700,0.700288,-0.186277,0.367201
5701,0.553015,-0.253741,0.261846
5702,0.563378,-0.223805,0.289668
5703,0.615311,-0.077849,0.379067
5704,0.577723,-0.138721,0.347377
5705,0.664165,-0.115168,0.383855
5706,0.596517,-0.108285,0.363222
5707,0.594496,-0.170938,0.337530
5708,0.510396,-0.130668,0.323584
5709,0.516678,-0.065334,0.338690
5710,0.544059,-0.134695,0.335481
5711,0.569136,-0.038925,0.366431
5712,0.512942,-0.187561,0.287618
5713,3.983186,-0.472040,0.467144
5714,3.990899,-0.527990,0.402977
5715,4.025206,-0.446004,0.491128
5716,3.987042,-0.500015,0.435061
5717,4.013830,-0.530313,0.400126
5718,3.899194,-0.518730,0.413852
5719,3.952815,-0.571596,0.338001
5720,3.926004,-0.545163,0.375927
5721,3.971857,-0.549793,0.370489
5722,3.941190,-0.495385,0.440498
5723,3.979667,-0.592483,0.296787
5724,3.881415,-0.583231,0.316546
5725,3.818878,-0.565661,0.345975
5726,3.876998,-0.595981,0.290374
5727,3.850146,-0.574446,0.331261
5728,3.778761,-0.584715,0.309332
5729,3.917115,-0.577413,0.327274
5730,3.859036,-0.542195,0.379914
5731,3.911147,-0.448568,0.489098
5732,3.914156,-0.429015,0.505732
5733,3.947167,-0.460304,0.478121
5734,3.833109,-0.462342,0.475293
5735,3.800108,-0.430496,0.502261
5736,3.872128,-0.455455,0.482196
5737,3.866151,-0.490536,0.444573
5738,3.801536,-0.517782,0.413848
5739,3.810207,-0.541721,0.379912
5740,3.777115,-0.517524,0.413836
5741,3.817323,-0.490062,0.444570
5742,1.504716,-0.103397,0.554949
5743,1.544187,-0.068795,0.564716
5744,1.443698,-0.051699,0.552217
5745,1.524451,-0.086096,0.559832
5746,1.522919,-0.034397,0.564390
5747,1.584831,-0.086015,0.566446
5748,1.566867,-0.153291,0.547951
5749,2.298928,-0.073587,0.621943
5750,2.274058,-0.036794,0.622805
5751,2.343222,-0.092045,0.621374
5752,2.279371,-0.092090,0.618192
5753,2.575915,-0.155198,0.619259
5754,2.547246,-0.229346,0.594614
5755,2.620357,-0.138900,0.624502
5756,2.561581,-0.192272,0.606936
5757,2.621655,-0.235023,0.595227
5758,2.545957,-0.132876,0.622819
5759,2.472857,-0.223475,0.593499
5760,2.201455,-0.603083,0.148918
5761,2.241826,-0.583196,0.220215
5762,2.151747,-0.604183,0.129911
5763,2.221640,-0.593139,0.184566
5764,2.162465,-0.578671,0.219195
5765,2.231163,-0.608592,0.130848
5766,2.321224,-0.587069,0.220988
5767,2.470415,-0.629708,0.075013
5768,2.487830,-0.632624,0.037506
5769,2.429495,-0.625086,0.093849
5770,2.493738,-0.627872,0.093875
5771,0.224893,-0.174265,0.105301
5772,0.238732,-0.186848,0.100821
5773,0.207070,-0.171053,0.083715
5774,0.238387,-0.149509,0.150874
5775,0.271639,-0.162798,0.165885
5776,0.231640,-0.161887,0.128087
5777,0.206498,-0.134735,0.134363
5778,0.225037,-0.104231,0.175020
5779,0.206994,-0.083814,0.171079
5780,0.239064,-0.098818,0.188103
5781,0.231712,-0.126870,0.162947
5782,1.542359,-0.564560,0.068411
5783,1.501973,-0.554736,0.102816
5784,1.522006,-0.564312,0.034206
5785,1.522166,-0.559648,0.085614
5786,1.442326,-0.552111,0.051408
5787,1.582543,-0.566278,0.085537
5788,1.562741,-0.547755,0.152452
5789,0.858616,-0.134478,0.435765
5790,0.932509,-0.124021,0.456454
5791,0.837958,-0.106145,0.437370
5792,0.895563,-0.129250,0.446109
5793,0.929334,-0.062011,0.463985
5794,0.828568,-0.197597,0.402775
5795,0.770794,-0.175042,0.395709
5796,0.843592,-0.166037,0.419270
5797,0.945770,-0.239781,0.410960
5798,0.939140,-0.181901,0.433707
5799,0.887169,-0.218689,0.406868
5800,1.063848,-0.494861,0.068364
5801,1.021776,-0.480662,0.102762
5802,1.049481,-0.494452,0.034182
5803,1.042812,-0.487761,0.085563
5804,0.973967,-0.476088,0.051381
5805,1.133722,-0.501768,0.102560
5806,1.141534,-0.508249,0.051280
5807,1.098785,-0.498314,0.085462
5808,1.071703,-0.474702,0.151899
5809,1.127676,-0.485255,0.151798
5810,3.601527,-0.379681,0.541046
5811,3.518722,-0.369730,0.546745
5812,3.622087,-0.409670,0.517550
5813,3.560124,-0.374705,0.543896
5814,3.518479,-0.423663,0.501089
5815,3.643282,-0.324711,0.576321
5816,3.705194,-0.361680,0.552775
5817,3.622404,-0.352196,0.558684
5818,3.519150,-0.307330,0.579910
5819,3.581430,-0.284820,0.594698
5820,1.077764,-0.271925,0.422053
5821,1.013017,-0.302000,0.385414
5822,1.110989,-0.279580,0.424046
5823,1.045391,-0.286962,0.403734
5824,1.047565,-0.330238,0.368983
5825,1.077221,-0.223567,0.449508
5826,1.143463,-0.214210,0.466276
5827,1.077493,-0.247746,0.435781
5828,0.979394,-0.270890,0.398187
5829,1.011496,-0.231674,0.430234
5830,1.465181,-0.328388,0.453278
5831,1.406631,-0.348756,0.428498
5832,1.406124,-0.394215,0.386963
5833,1.493585,-0.365442,0.425794
5834,1.435906,-0.338572,0.440888
5835,1.406378,-0.371485,0.407731
5836,1.464057,-0.398356,0.392637
5837,1.410217,-0.245207,0.495752
5838,1.349282,-0.319571,0.441457
5839,1.379749,-0.282389,0.468605
5840,1.377956,-0.334163,0.434977
5841,1.437699,-0.286797,0.474515
5842,1.348308,-0.389421,0.380649
5843,1.319887,-0.352099,0.407896
5844,1.302253,-0.282723,0.458308
5845,1.309820,-0.225447,0.490301
5846,1.275393,-0.291665,0.447754
5847,1.306036,-0.254085,0.474304
5848,1.259762,-0.215150,0.486672
5849,1.325767,-0.301147,0.449883
5850,1.360018,-0.235327,0.493026
5851,1.519285,-0.288723,0.486904
5852,1.546690,-0.299377,0.483827
5853,1.492233,-0.308555,0.470091
5854,1.519459,-0.224758,0.519648
5855,1.574239,-0.213972,0.530301
5856,1.519372,-0.256741,0.503276
5857,1.464838,-0.234983,0.507700
5858,2.038815,-0.432399,0.431871
5859,1.949567,-0.481684,0.366125
5860,1.993702,-0.517538,0.319482
5861,2.060092,-0.514606,0.332362
5862,1.994191,-0.457041,0.398998
5863,1.971634,-0.499611,0.342803
5864,2.026897,-0.516072,0.325922
5865,2.049453,-0.473502,0.382117
5866,1.861160,-0.521671,0.293297
5867,1.971982,-0.549834,0.256637
5868,1.916571,-0.535753,0.274967
5869,1.982842,-0.533686,0.288059
5870,1.905363,-0.501678,0.329711
5871,2.071598,-0.544376,0.275268
5872,2.027543,-0.561990,0.237406
5873,1.950378,-0.366968,0.481115
5874,1.919821,-0.426644,0.425874
5875,1.994596,-0.399683,0.456493
5876,1.935099,-0.396806,0.453494
5877,1.934694,-0.454164,0.395999
5878,1.862776,-0.294493,0.521141
5879,1.860251,-0.423482,0.422587
5880,1.861514,-0.358988,0.471864
5881,1.890036,-0.425063,0.424230
5882,1.906577,-0.330730,0.501128
5883,1.860706,-0.472577,0.357942
5884,1.742121,-0.533395,0.248708
5885,1.731797,-0.500432,0.307815
5886,1.682816,-0.537084,0.225398
5887,1.736959,-0.516914,0.278262
5888,1.699456,-0.494656,0.311316
5889,1.786726,-0.472810,0.356705
5890,1.823943,-0.497241,0.325001
5891,1.759261,-0.486621,0.332260
5892,1.801641,-0.527533,0.271002
5893,1.749986,-0.443905,0.385027
5894,0.648182,-0.051796,0.394304
5895,0.631747,-0.064823,0.386685
5896,0.631580,-0.025898,0.390554
5897,0.680297,-0.064643,0.402174
5898,0.617684,-0.303597,0.241043
5899,0.670153,-0.330545,0.233178
5900,0.604113,-0.283313,0.256542
5901,0.643919,-0.317071,0.237111
5902,0.668330,-0.305159,0.261859
5903,0.605912,-0.308590,0.227567
5904,0.674009,-0.350562,0.200702
5905,0.635992,-0.389576,0.057350
5906,0.625484,-0.388190,0.028675
5907,0.616647,-0.380292,0.071753
5908,0.694204,-0.402874,0.085916
5909,0.704967,-0.410540,0.042958
5910,0.665098,-0.396225,0.071633
5911,0.686034,-0.386727,0.127071
5912,4.930270,-0.486755,0.455340
5913,4.865593,-0.518416,0.418949
5914,4.965135,-0.511318,0.425894
5915,4.897932,-0.502586,0.437145
5916,4.866858,-0.536861,0.393860
5917,4.798388,-0.509189,0.430050
5918,4.829465,-0.470206,0.469143
5919,4.831991,-0.513803,0.424500
5920,4.895406,-0.458989,0.481788
5921,4.767317,-0.541225,0.385083
5922,4.770746,-0.453841,0.488058
5923,4.748295,-0.459507,0.482637
5924,4.779378,-0.416956,0.517812
5925,4.784567,-0.481515,0.459054
5926,5.000000,-0.471312,0.471312
5927,4.953513,-0.458195,0.484072
5928,5.000000,-0.503596,0.433880
5929,4.976757,-0.464754,0.477692
5930,4.941892,-0.472475,0.469706
5931,5.000000,-0.396449,0.535881
5932,4.930271,-0.414069,0.522352
5933,4.965135,-0.405259,0.529116
5934,4.941892,-0.436132,0.503212
5935,5.000000,-0.433880,0.503596
5936,4.895406,-0.422646,0.515294
5937,5.000000,-0.312796,0.588773
5938,4.953513,-0.354565,0.564532
5939,5.000000,-0.354622,0.562327
5940,4.976756,-0.333680,0.576653
5941,4.941892,-0.384317,0.543442
5942,4.941891,-0.343524,0.571188
5943,5.000000,-0.267793,0.608622
5944,3.972857,-0.109524,0.655175
5945,4.050830,-0.072904,0.660672
5946,3.958207,-0.054762,0.659584
5947,4.011844,-0.091214,0.657924
5948,4.062797,-0.036452,0.662716
5949,4.104487,-0.109531,0.655915
5950,4.053379,-0.162795,0.642146
5951,4.077659,-0.091218,0.658294
5952,3.987564,-0.162791,0.641776
5953,4.155641,-0.054765,0.660641
5954,1.811173,-0.420802,0.419648
5955,1.787527,-0.358189,0.471771
5956,1.798949,-0.446806,0.388177
5957,1.799350,-0.389496,0.445710
5958,1.750387,-0.386594,0.442559
5959,1.835712,-0.422142,0.421117
5960,1.825152,-0.326341,0.496456
5961,1.734166,-0.309197,0.499828
5962,1.745685,-0.249855,0.533208
5963,1.702013,-0.312745,0.494033
5964,1.739925,-0.279526,0.516518
5965,1.687352,-0.226520,0.537081
5966,1.760846,-0.333693,0.485800
5967,1.804231,-0.272174,0.527175
5968,2.060076,-0.332593,0.514455
5969,1.994231,-0.320028,0.517242
5970,2.049445,-0.382496,0.473163
5971,2.027153,-0.326310,0.515849
5972,1.972305,-0.343498,0.499178
5973,1.972777,-0.257167,0.549648
5974,2.027931,-0.237579,0.561931
5975,1.983504,-0.288597,0.533445
5976,2.071580,-0.275292,0.544334
5977,1.917777,-0.275830,0.535394
5978,4.179353,-0.339466,0.572123
5979,4.120308,-0.299441,0.593815
5980,4.123289,-0.379717,0.543617
5981,4.149831,-0.319453,0.582969
5982,4.077499,-0.311244,0.587291
5983,4.146905,-0.233872,0.622763
5984,4.219224,-0.242654,0.619623
5985,4.133607,-0.266656,0.608289
5986,4.235448,-0.295450,0.594303
5987,4.074588,-0.224965,0.625570
5988,4.166827,-0.158154,0.646251
5989,4.135657,-0.133842,0.651083
5990,4.207975,-0.143133,0.649720
5991,4.156866,-0.196013,0.634507
5992,0.099636,-0.100436,0.035448
5993,0.080981,-0.085873,0.023660
5994,0.107559,-0.110507,0.017724
5995,0.090309,-0.093154,0.029554
5996,0.078083,-0.084656,0.011830
5997,0.091666,-0.072129,0.068012
5998,0.066227,-0.065646,0.035364
5999,0.078947,-0.068887,0.051688
6000,0.073604,-0.075759,0.029512
6001,0.095651,-0.086282,0.051730
6002,0.056380,-0.059890,0.017682
6003,0.055914,-0.046008,0.044509
6004,0.065837,-0.037717,0.063863
6005,0.047251,-0.039091,0.038342
6006,0.060875,-0.041862,0.054186
6007,0.056185,-0.018858,0.058998
6008,0.061071,-0.055827,0.039937
6009,0.078751,-0.054923,0.065938
6010,0.080508,-0.025243,0.084946
6011,0.073172,-0.031480,0.074405
6012,0.077846,-0.012621,0.084193
6013,0.099025,-0.037851,0.098958
6014,0.095345,-0.054990,0.083485
6015,0.089766,-0.031547,0.091952
6016,0.107253,-0.018925,0.109769
6017,1.505897,-0.519590,0.220995
6018,1.463618,-0.539268,0.149899
6019,1.564704,-0.530181,0.211541
6020,1.484758,-0.529429,0.185447
6021,1.482795,-0.547002,0.126357
6022,1.388608,-0.495806,0.238793
6023,1.383866,-0.535933,0.122424
6024,1.386237,-0.515869,0.180608
6025,1.423742,-0.537600,0.136161
6026,1.447252,-0.507698,0.229894
6027,1.383273,-0.542709,0.061212
6028,1.254880,-0.483721,0.220576
6029,1.265733,-0.456504,0.275490
6030,1.188255,-0.476232,0.210805
6031,1.260307,-0.470113,0.248033
6032,1.235169,-0.445386,0.284150
6033,1.338578,-0.446035,0.310625
6034,1.363593,-0.470920,0.274709
6035,1.302156,-0.451269,0.293057
6036,1.321744,-0.489764,0.229684
6037,1.314535,-0.415331,0.342479
6038,1.937271,-0.578574,0.174585
6039,1.954627,-0.564204,0.215611
6040,1.956711,-0.587718,0.142779
6041,1.864371,-0.579314,0.151582
6042,1.862766,-0.550493,0.222439
6043,1.900821,-0.578944,0.163084
6044,1.867510,-0.589255,0.075791
6045,1.783889,-0.567538,0.169200
6046,1.765039,-0.573702,0.135993
6047,1.763005,-0.550467,0.208954
6048,1.824130,-0.573426,0.160391
6049,3.638080,-0.219376,0.624120
6050,3.651836,-0.148077,0.644906
6051,3.578829,-0.232152,0.618597
6052,3.644958,-0.183727,0.634513
6053,3.625648,-0.136397,0.647074
6054,3.684934,-0.122912,0.649973
6055,3.697337,-0.206370,0.628989
6056,3.900756,-0.138006,0.649309
6057,3.879432,-0.204770,0.631300
6058,3.936807,-0.123765,0.652242
6059,3.890094,-0.171388,0.640304
6060,3.940851,-0.210414,0.629838
6061,3.875388,-0.117880,0.652737
6062,3.818013,-0.199067,0.632579
6063,3.681020,-0.282162,0.598787
6064,3.662151,-0.303436,0.587554
6065,3.659550,-0.250769,0.611453
6066,3.761763,-0.300608,0.590557
6067,3.764435,-0.349629,0.559893
6068,3.721392,-0.291385,0.594672
6069,3.759179,-0.246986,0.612208
6070,3.841927,-0.272762,0.604682
6071,3.860679,-0.238766,0.617991
6072,3.863278,-0.292004,0.595396
6073,3.801845,-0.286685,0.597620
6074,0.760768,-0.411524,0.127988
6075,0.786931,-0.395400,0.188308
6076,0.727486,-0.407199,0.106952
6077,0.773849,-0.403462,0.158148
6078,0.732398,-0.382990,0.178267
6079,0.782001,-0.420404,0.117125
6080,0.841998,-0.405988,0.197479
6081,1.009020,-0.444144,0.204528
6082,0.979396,-0.462560,0.138984
6083,1.065325,-0.456443,0.202781
6084,0.994208,-0.453352,0.171756
6085,1.000586,-0.471611,0.120873
6086,0.944167,-0.459073,0.122494
6087,0.953042,-0.430360,0.205588
6088,1.786259,-0.170010,0.567507
6089,1.765972,-0.209932,0.550358
6090,1.767599,-0.136682,0.573760
6091,1.865167,-0.152244,0.579205
6092,1.863971,-0.223369,0.550173
6093,1.825713,-0.161127,0.573356
6094,1.867908,-0.076122,0.589200
6095,1.937797,-0.174957,0.578502
6096,1.956970,-0.142917,0.587690
6097,1.955287,-0.216062,0.564075
6098,1.901482,-0.163601,0.578854
6099,0.871606,-0.276609,0.366280
6100,0.877671,-0.331011,0.319984
6101,0.917217,-0.341878,0.321702
6102,0.908688,-0.258195,0.388620
6103,0.874638,-0.303810,0.343132
6104,0.897444,-0.336445,0.320843
6105,0.931494,-0.290830,0.366331
6106,0.799350,-0.308566,0.315162
6107,0.846663,-0.367701,0.264605
6108,0.823006,-0.338133,0.289883
6109,0.862167,-0.349356,0.292294
6110,0.835478,-0.292587,0.340721
6111,0.907141,-0.379227,0.264176
6112,0.871864,-0.392138,0.235627
6113,0.789597,-0.371125,0.233728
6114,0.736544,-0.345527,0.245942
6115,0.788264,-0.383263,0.211018
6116,0.763070,-0.358326,0.239835
6117,0.707204,-0.358053,0.207084
6118,0.818130,-0.369413,0.249167
6119,0.767947,-0.327047,0.280552
6120,0.712680,-0.324692,0.262060
6121,0.724612,-0.335110,0.254001
6122,0.691417,-0.327618,0.247619
6123,0.732704,-0.294720,0.303417
6124,0.766027,-0.301643,0.309289
6125,0.722692,-0.309706,0.282739
6126,0.699606,-0.287247,0.296978
6127,2.912359,-0.282344,0.584280
6128,2.953185,-0.365673,0.537196
6129,3.005992,-0.327654,0.562726
6130,3.012075,-0.265134,0.594987
6131,2.932772,-0.324008,0.560738
6132,2.979589,-0.346663,0.549961
6133,3.009034,-0.296394,0.578857
6134,2.962217,-0.273739,0.589634
6135,2.994359,-0.441070,0.478488
6136,3.052857,-0.349875,0.550408
6137,3.023608,-0.395473,0.514448
6138,3.029425,-0.338765,0.556567
6139,2.973772,-0.403371,0.507842
6140,3.061944,-0.256348,0.599936
6141,3.082335,-0.298719,0.577646
6142,2.787585,-0.454747,0.457783
6143,2.849725,-0.373701,0.528303
6144,2.798380,-0.330989,0.554417
6145,2.741426,-0.354741,0.537414
6146,2.818655,-0.414224,0.493043
6147,2.824052,-0.352345,0.541360
6148,2.769903,-0.342865,0.545916
6149,2.764506,-0.404744,0.497598
6150,2.804196,-0.261744,0.590558
6151,2.858278,-0.272044,0.587419
6152,2.801288,-0.296367,0.572488
6153,2.881042,-0.328022,0.556291
6154,2.718745,-0.297721,0.566627
6155,2.750130,-0.251222,0.593199
6156,3.097469,-0.568098,0.322384
6157,3.041314,-0.597439,0.261238
6158,3.135934,-0.565688,0.328058
6159,3.069392,-0.582768,0.291811
6160,3.090168,-0.606439,0.241468
6161,3.076840,-0.537988,0.369561
6162,3.143531,-0.514529,0.401709
6163,3.087155,-0.553043,0.345972
6164,2.943677,-0.576545,0.299509
6165,2.992495,-0.586992,0.280374
6166,3.010259,-0.557267,0.334535
6167,2.742634,-0.534475,0.359210
6168,2.809637,-0.549562,0.339594
6169,2.865418,-0.521926,0.383267
6170,2.765110,-0.494611,0.408496
6171,2.776136,-0.542019,0.349402
6172,2.837527,-0.535744,0.361431
6173,2.826502,-0.488337,0.420525
6174,2.821048,-0.585760,0.273441
6175,2.759757,-0.589617,0.260055
6176,2.815342,-0.567661,0.306517
6177,2.720550,-0.563975,0.302940
6178,2.904548,-0.549236,0.341388
6179,2.882362,-0.581152,0.286475
6180,2.833766,-0.177897,0.621910
6181,2.818981,-0.219820,0.606234
6182,2.814213,-0.150263,0.627927
6183,2.902734,-0.144832,0.632347
6184,2.907547,-0.213588,0.608314
6185,2.868250,-0.161364,0.627129
6186,2.898352,-0.072416,0.640362
6187,2.972399,-0.180241,0.625020
6188,2.987499,-0.153212,0.631930
6189,2.992237,-0.222687,0.610004
6190,2.937566,-0.162536,0.628683
6191,2.844971,-0.619814,0.186169
6192,2.820407,-0.626587,0.155982
6193,2.833009,-0.602787,0.229805
6194,2.918344,-0.630558,0.154171
6195,2.906157,-0.639467,0.077085
6196,2.881657,-0.625186,0.170170
6197,2.931010,-0.603551,0.226840
6198,2.991906,-0.626323,0.177379
6199,3.016610,-0.611881,0.219308
6200,3.004086,-0.634007,0.144967
6201,2.955125,-0.628440,0.165775
6202,1.332571,-0.153356,0.520756
6203,1.321195,-0.189401,0.505528
6204,1.313578,-0.128974,0.523988
6205,1.394601,-0.125868,0.536566
6206,1.402409,-0.185537,0.516159
6207,1.363586,-0.139612,0.528661
6208,1.388640,-0.062934,0.543026
6209,1.472628,-0.152546,0.539640
6210,1.488672,-0.127972,0.547294
6211,1.496043,-0.188652,0.529644
6212,1.433615,-0.139207,0.538103
6213,2.382084,-0.443677,0.447414
6214,2.473888,-0.444601,0.452160
6215,2.448208,-0.376419,0.509030
6216,2.389618,-0.338391,0.532053
6217,2.427986,-0.444139,0.449787
6218,2.461048,-0.410510,0.480595
6219,2.418913,-0.357405,0.520542
6220,2.385851,-0.391034,0.489734
6221,2.565708,-0.445257,0.456632
6222,2.481504,-0.338976,0.536418
6223,2.523606,-0.392116,0.496525
6224,2.464856,-0.357698,0.522724
6225,2.519798,-0.444929,0.454396
6226,2.394044,-0.277997,0.562219
6227,2.439987,-0.278290,0.564401
6228,2.552957,-0.306921,0.558693
6229,2.630458,-0.349601,0.536370
6230,2.550102,-0.268133,0.576653
6231,2.591708,-0.328261,0.547531
6232,2.663261,-0.295151,0.566105
6233,2.517231,-0.322948,0.547555
6234,2.598083,-0.397429,0.496501
6235,2.682748,-0.386942,0.512281
6236,2.656603,-0.368271,0.524325
6237,2.712087,-0.370841,0.524848
6238,2.676639,-0.450164,0.457372
6239,2.621174,-0.447710,0.457002
6240,2.679693,-0.418553,0.484827
6241,2.732112,-0.452455,0.457577
6242,2.631626,-0.530169,0.358984
6243,2.554439,-0.554393,0.314713
6244,2.665046,-0.561822,0.302827
6245,2.593032,-0.542281,0.336849
6246,2.551981,-0.573558,0.274566
6247,2.482531,-0.530905,0.347603
6248,2.524119,-0.488081,0.402117
6249,2.518485,-0.542649,0.331158
6250,2.598667,-0.487713,0.407808
6251,2.441576,-0.560924,0.284682
6252,2.390692,-0.529480,0.342481
6253,2.448901,-0.503871,0.383333
6254,2.386388,-0.486579,0.394948
6255,2.419796,-0.516676,0.362907
6256,2.461394,-0.474236,0.417746
6257,2.465716,-0.517388,0.365468
6258,2.395657,-0.560212,0.282121
6259,2.683538,-0.506851,0.394058
6260,2.713086,-0.520663,0.376634
6261,2.657582,-0.518510,0.376521
6262,2.680088,-0.478508,0.425715
6263,2.305151,-0.477034,0.406025
6264,2.336574,-0.522064,0.349117
6265,2.343618,-0.460355,0.426720
6266,2.320863,-0.499549,0.377571
6267,2.363633,-0.525772,0.345799
6268,2.228457,-0.506751,0.361534
6269,2.314268,-0.553705,0.294237
6270,2.271363,-0.530228,0.327885
6271,2.325421,-0.537885,0.321677
6272,2.266804,-0.491893,0.383779
6273,2.357445,-0.572324,0.257999
6274,2.237122,-0.561861,0.269359
6275,2.155476,-0.545055,0.292332
6276,2.239474,-0.572529,0.244787
6277,2.196299,-0.553458,0.280846
6278,2.119290,-0.559600,0.255253
6279,2.275695,-0.557783,0.281798
6280,2.191967,-0.525903,0.326933
6281,2.304945,-0.403541,0.479126
6282,2.279225,-0.441105,0.442928
6283,2.343515,-0.423609,0.463270
6284,2.292085,-0.422323,0.461027
6285,2.292188,-0.459069,0.424477
6286,2.228029,-0.360536,0.507435
6287,2.227782,-0.439678,0.440531
6288,2.227905,-0.400107,0.473983
6289,2.253503,-0.440391,0.441730
6290,2.266487,-0.382038,0.493281
6291,2.228120,-0.473215,0.401032
6292,2.116226,-0.512192,0.342394
6293,2.135851,-0.528623,0.317363
6294,2.088159,-0.513399,0.337378
6295,2.133496,-0.471373,0.398223
6296,2.180977,-0.489062,0.379879
6297,2.124861,-0.491782,0.370309
6298,2.086155,-0.451886,0.415047
6299,2.164758,-0.437423,0.437812
6300,2.133277,-0.398038,0.471512
6301,2.149127,-0.454398,0.418018
6302,2.149018,-0.417731,0.454662
6303,2.086046,-0.415219,0.451692
6304,2.196270,-0.438551,0.439171
6305,2.180653,-0.379287,0.489474
6306,2.116073,-0.342201,0.512310
6307,2.155256,-0.291706,0.545377
6308,2.088075,-0.337397,0.513382
6309,2.135664,-0.316953,0.528843
6310,2.119170,-0.254849,0.559795
6311,2.124675,-0.370120,0.491911
6312,2.191642,-0.326121,0.526406
6313,2.335714,-0.346091,0.524030
6314,2.362666,-0.342241,0.528042
6315,2.320330,-0.374816,0.501578
6316,2.312967,-0.291732,0.554960
6317,2.355718,-0.254668,0.573672
6318,2.324340,-0.318912,0.539495
6319,2.270498,-0.326134,0.531198
6320,2.236252,-0.267592,0.562656
6321,2.195754,-0.279649,0.554016
6322,2.238496,-0.242817,0.573304
6323,2.274609,-0.279662,0.558808
6324,1.510258,-0.488115,0.284657
6325,1.540827,-0.485225,0.295843
6326,1.508078,-0.503852,0.252826
6327,1.454357,-0.455501,0.323065
6328,1.488173,-0.428999,0.360688
6329,1.482308,-0.471808,0.303861
6330,1.421482,-0.475653,0.280929
6331,1.399464,-0.433150,0.341495
6332,1.369021,-0.439592,0.326060
6333,1.402794,-0.413683,0.364229
6334,1.426910,-0.444325,0.332280
6335,1.189952,-0.496608,0.159361
6336,1.255916,-0.498027,0.186561
6337,1.155791,-0.482675,0.180198
6338,1.222934,-0.497317,0.172961
6339,1.255398,-0.490874,0.203568
6340,1.259121,-0.519488,0.116087
6341,1.323332,-0.511251,0.178701
6342,1.291227,-0.515369,0.147394
6343,1.289624,-0.504639,0.182631
6344,1.224537,-0.508048,0.137724
6345,1.355970,-0.503528,0.208747
6346,1.342195,-0.530701,0.120353
6347,1.320413,-0.537950,0.058416
6348,1.363030,-0.533317,0.121388
6349,1.331304,-0.534325,0.089384
6350,1.351546,-0.543718,0.029208
6351,1.332764,-0.520976,0.149527
6352,1.289767,-0.528719,0.087251
6353,1.175521,-0.507999,0.107182
6354,1.154621,-0.504883,0.104871
6355,1.182736,-0.502303,0.133271
6356,1.203701,-0.520428,0.058412
6357,1.176523,-0.517579,0.029206
6358,1.189611,-0.514213,0.082797
6359,1.231411,-0.519958,0.087250
6360,1.263191,-0.531411,0.038950
6361,1.291802,-0.534681,0.048683
6362,1.263674,-0.532186,0.019475
6363,1.233446,-0.525920,0.048681
6364,0.462965,-0.185502,0.272393
6365,0.408900,-0.184100,0.243895
6366,0.408465,-0.212858,0.218935
6367,0.489226,-0.214978,0.262022
6368,0.435932,-0.184801,0.258144
6369,0.408682,-0.198479,0.231415
6370,0.461977,-0.228656,0.235293
6371,0.415088,-0.120364,0.284071
6372,0.357492,-0.150869,0.236618
6373,0.386290,-0.135616,0.260344
6374,0.383196,-0.167484,0.240256
6375,0.439026,-0.152933,0.278232
6376,0.356677,-0.194472,0.199915
6377,0.331191,-0.163477,0.208757
6378,0.352192,-0.102937,0.258208
6379,0.381928,-0.061243,0.286370
6380,0.336568,-0.098239,0.251166
6381,0.367060,-0.082090,0.272289
6382,0.367827,-0.030622,0.282540
6383,0.354842,-0.126903,0.247413
6384,0.398508,-0.090803,0.285220
6385,0.478109,-0.127498,0.310839
6386,0.494252,-0.129083,0.317212
6387,0.470537,-0.156500,0.291616
6388,0.466295,-0.061378,0.325300
6389,0.494628,-0.030689,0.339548
6390,0.472202,-0.094438,0.318070
6391,0.440692,-0.090871,0.304686
6392,0.427832,-0.040915,0.311616
6393,0.404880,-0.051079,0.298993
6394,0.430163,-0.020457,0.313981
6395,0.447064,-0.051146,0.318458
6396,0.381278,-0.285668,0.062989
6397,0.351484,-0.256552,0.106041
6398,0.367502,-0.282189,0.031495
6399,0.366381,-0.271110,0.084515
6400,0.335924,-0.249586,0.101278
6401,0.414068,-0.282131,0.123671
6402,0.356839,-0.233421,0.155157
6403,0.385454,-0.257776,0.139414
6404,0.354162,-0.244987,0.130599
6405,0.397673,-0.283900,0.093330
6406,0.330864,-0.204754,0.168026
6407,0.408408,-0.239410,0.189518
6408,0.462265,-0.268116,0.191108
6409,0.408437,-0.226134,0.204227
6410,0.435337,-0.253763,0.190313
6411,0.488877,-0.256285,0.221379
6412,0.382624,-0.236416,0.172338
6413,0.438167,-0.275124,0.157389
6414,0.427362,-0.311249,0.042078
6415,0.429927,-0.313797,0.021039
6416,0.404320,-0.298458,0.052534
6417,0.465630,-0.324679,0.063136
6418,0.494295,-0.339237,0.031568
6419,0.446496,-0.317964,0.052607
6420,0.439849,-0.303405,0.093404
6421,0.477298,-0.308740,0.131638
6422,0.469781,-0.288428,0.161373
6423,0.493510,-0.315078,0.133432
6424,0.471464,-0.316710,0.097387
6425,3.268088,-0.424396,0.500619
6426,3.215860,-0.369142,0.541609
6427,3.160684,-0.379242,0.533296
6428,3.239154,-0.457733,0.467237
6429,3.241974,-0.396769,0.521114
6430,3.188272,-0.374192,0.537453
6431,3.185453,-0.435157,0.483576
6432,3.326185,-0.348969,0.557070
6433,3.218953,-0.299424,0.583228
6434,3.272569,-0.324197,0.570149
6435,3.217406,-0.334283,0.562418
6436,3.297136,-0.386682,0.528845
6437,3.136248,-0.313402,0.569090
6438,3.165382,-0.273493,0.594056
6439,3.408938,-0.202647,0.626797
6440,3.381287,-0.253232,0.607659
6441,3.422844,-0.298194,0.587520
6442,3.464259,-0.223788,0.619936
6443,3.395113,-0.227939,0.617228
6444,3.402065,-0.275713,0.597589
6445,3.471211,-0.271562,0.600297
6446,3.298344,-0.159362,0.637422
6447,3.312133,-0.257368,0.604754
6448,3.305238,-0.208365,0.621088
6449,3.346710,-0.255300,0.606206
6450,3.353641,-0.181004,0.632110
6451,3.374514,-0.323582,0.572295
6452,3.319159,-0.303168,0.580912
6453,3.351464,-0.442885,0.486150
6454,3.357844,-0.463737,0.465514
6455,3.309776,-0.433641,0.493384
6456,3.422138,-0.416556,0.510256
6457,3.470187,-0.447075,0.482844
6458,3.386801,-0.429721,0.498203
6459,3.374162,-0.382762,0.533663
6460,3.454530,-0.362801,0.550388
6461,3.438687,-0.330498,0.568954
6462,3.486626,-0.366266,0.548567
6463,3.438334,-0.389678,0.530322
6464,3.102269,-0.466780,0.456867
6465,3.049264,-0.508350,0.408340
6466,3.156245,-0.478925,0.445361
6467,3.075766,-0.487565,0.432603
6468,3.063052,-0.523169,0.388950
6469,2.968782,-0.516521,0.394907
6470,2.981570,-0.478795,0.436697
6471,3.009023,-0.512435,0.401623
6472,3.048314,-0.453925,0.467677
6473,2.956229,-0.546533,0.347208
6474,2.908335,-0.496834,0.417008
6475,2.890965,-0.448096,0.468332
6476,2.886876,-0.509380,0.400138
6477,2.899650,-0.472465,0.442670
6478,2.839275,-0.451422,0.463057
6479,2.938558,-0.506677,0.405957
6480,2.942662,-0.444583,0.473410
6481,3.105202,-0.400990,0.515699
6482,3.132943,-0.390116,0.524498
6483,3.103736,-0.433885,0.486283
6484,3.079030,-0.375433,0.533053
6485,2.897911,-0.397135,0.512537
6486,2.894438,-0.422615,0.490434
6487,2.873818,-0.385418,0.520420
6488,2.925548,-0.381404,0.524866
6489,0.122595,-0.108912,0.064751
6490,0.131025,-0.117666,0.063350
6491,0.111116,-0.104674,0.050100
6492,0.132202,-0.096853,0.093715
6493,0.153405,-0.108407,0.105784
6494,0.127398,-0.102882,0.079233
6495,0.111934,-0.084491,0.080863
6496,0.122254,-0.067145,0.107104
6497,0.110639,-0.052498,0.103031
6498,0.130737,-0.065170,0.116345
6499,0.127228,-0.081999,0.100409
6500,0.817631,-0.237293,0.377429
6501,0.823099,-0.217445,0.390102
6502,0.844618,-0.256951,0.371854
6503,0.753901,-0.235077,0.358831
6504,0.733460,-0.193782,0.373737
6505,0.785766,-0.236185,0.368130
6506,0.776625,-0.271821,0.336996
6507,0.724206,-0.251294,0.337277
6508,0.728455,-0.273007,0.320347
6509,0.705881,-0.235680,0.341518
6510,0.739053,-0.243185,0.348054
6511,1.032136,-0.421032,0.257356
6512,1.066244,-0.420841,0.269436
6513,1.020578,-0.432588,0.230942
6514,0.988198,-0.393029,0.283580
6515,1.035155,-0.375753,0.318066
6516,1.010167,-0.407031,0.270468
6517,0.942631,-0.404802,0.245115
6518,0.972203,-0.347904,0.332593
6519,0.944710,-0.344891,0.327148
6520,0.992610,-0.324952,0.359004
6521,0.980200,-0.370467,0.308087
6522,3.214018,-0.631974,0.174368
6523,3.291968,-0.625733,0.200077
6524,3.176520,-0.623706,0.198033
6525,3.252993,-0.628853,0.187222
6526,3.292716,-0.619393,0.218100
6527,3.289088,-0.644674,0.125981
6528,3.368455,-0.630412,0.189054
6529,3.328772,-0.637543,0.157517
6530,3.330212,-0.628073,0.194565
6531,3.251553,-0.638324,0.150174
6532,3.408188,-0.620163,0.219655
6533,3.384520,-0.645992,0.127022
6534,3.352958,-0.654774,0.063284
6535,3.408385,-0.646288,0.127280
6536,3.368739,-0.650383,0.095153
6537,3.384940,-0.656750,0.031642
6538,3.376488,-0.638202,0.158038
6539,3.321023,-0.649724,0.094632
6540,3.194188,-0.644646,0.117066
6541,3.170459,-0.644585,0.114794
6542,3.204103,-0.638310,0.145717
6543,3.221900,-0.652582,0.063285
6544,3.188362,-0.653463,0.031643
6545,3.208044,-0.648614,0.090176
6546,3.255494,-0.648628,0.094633
6547,3.286898,-0.655395,0.042172
6548,3.319928,-0.655085,0.052728
6549,3.286160,-0.656050,0.021086
6550,3.254399,-0.653989,0.052729
6551,3.205045,-0.204022,0.622860
6552,3.188167,-0.137417,0.640517
6553,3.158428,-0.225792,0.613872
6554,3.196606,-0.170719,0.631689
6555,3.160619,-0.131785,0.641124
6556,3.226495,-0.080284,0.650810
6557,3.262419,-0.119823,0.644116
6558,3.207331,-0.108850,0.645664
6559,3.251694,-0.181692,0.630141
6560,3.190659,-0.040142,0.652577
6561,3.289956,-0.053481,0.654630
6562,3.357558,-0.080281,0.652997
6563,3.287688,-0.026741,0.655668
6564,3.323757,-0.066881,0.653814
6565,3.387240,-0.040141,0.655862
6566,3.258225,-0.066883,0.652720
6567,3.327951,-0.119822,0.645210
6568,3.245350,-0.254119,0.604910
6569,3.232151,-0.276772,0.594069
6570,3.225197,-0.229071,0.613885
6571,3.278741,-0.255744,0.604832
6572,3.411498,-0.136465,0.644469
6573,3.384528,-0.108373,0.648733
6574,3.439796,-0.130589,0.646048
6575,3.410218,-0.169556,0.635633
6576,0.998812,-0.182178,0.451581
6577,0.972992,-0.122983,0.465690
6578,0.972291,-0.210979,0.431270
6579,0.985902,-0.152580,0.458636
6580,0.952751,-0.123502,0.461072
6581,1.053893,-0.120793,0.482849
6582,0.989214,-0.060891,0.481120
6583,1.021554,-0.090842,0.481984
6584,0.981103,-0.091937,0.473405
6585,1.026353,-0.151486,0.467215
6586,0.957686,-0.030445,0.476317
6587,1.042344,-0.040597,0.493793
6588,1.100920,-0.060862,0.502667
6589,1.038729,-0.020299,0.493918
6590,1.071632,-0.050730,0.498230
6591,1.125133,-0.030431,0.508698
6592,1.015779,-0.050744,0.487456
6593,1.077406,-0.090828,0.492758
6594,1.068971,-0.190151,0.463019
6595,1.073096,-0.206859,0.456264
6596,1.033892,-0.186164,0.457300
6597,1.131434,-0.163497,0.484943
6598,1.170569,-0.184175,0.483993
6599,1.100203,-0.176824,0.473981
6600,1.092664,-0.142145,0.483896
6601,1.136397,-0.110106,0.500643
6602,1.118659,-0.085484,0.501655
6603,1.157119,-0.107295,0.504795
6604,1.133916,-0.136802,0.492793
6605,4.267042,-0.564853,0.352043
6606,4.225622,-0.532537,0.398883
6607,4.264543,-0.583538,0.317814
6608,4.246332,-0.548695,0.375463
6609,4.199893,-0.559363,0.356733
6610,4.290266,-0.558940,0.361310
6611,4.251380,-0.499731,0.436545
6612,4.172802,-0.498025,0.440834
6613,4.172179,-0.443962,0.495233
6614,4.146718,-0.505494,0.431921
6615,4.172490,-0.470994,0.468033
6616,4.119702,-0.431965,0.505172
6617,4.199212,-0.515281,0.419859
6618,4.224658,-0.455443,0.484720
6619,4.352907,-0.402216,0.530562
6620,4.371857,-0.384441,0.543234
6621,4.368273,-0.434818,0.502372
6622,4.284298,-0.366131,0.555872
6623,4.287920,-0.308783,0.586178
6624,4.318602,-0.384174,0.543217
6625,4.280718,-0.416528,0.515040
6626,4.211932,-0.384776,0.542773
6627,4.192055,-0.414369,0.519003
6628,4.195643,-0.362121,0.557448
6629,4.248115,-0.375454,0.549323
6630,5.086236,0.075383,0.661434
6631,5.129361,0.113280,0.654908
6632,5.043118,0.094593,0.659204
6633,5.107798,0.094332,0.658171
6634,5.064680,0.168036,0.641689
6635,5.128573,0.000000,0.664566
6636,5.064287,0.000000,0.665616
6637,5.107404,0.037691,0.663000
6638,5.258055,0.000000,0.659432
6639,5.193708,0.056640,0.657170
6640,5.193314,0.000000,0.661999
6641,5.294731,0.286008,0.592207
6642,5.222384,0.361946,0.553145
6643,5.148387,0.317792,0.582980
6644,5.147459,0.255494,0.612958
6645,5.258557,0.323977,0.572676
6646,5.185385,0.339869,0.568063
6647,5.147923,0.286643,0.597969
6648,5.221095,0.270751,0.602583
6649,5.149528,0.431522,0.504385
6650,5.074993,0.333064,0.576625
6651,5.112260,0.382293,0.540505
6652,5.111690,0.325428,0.579803
6653,5.185956,0.396734,0.528765
6654,5.073730,0.239142,0.620714
6655,5.037496,0.277927,0.602548
6656,5.277232,0.146704,0.642055
6657,5.184786,0.173126,0.639747
6658,5.267644,0.073352,0.650744
6659,5.231009,0.159915,0.640901
6660,5.157073,0.143203,0.647327
6661,5.166122,0.214310,0.626353
6662,5.285982,0.216356,0.617131
6663,6.494034,0.000000,0.553200
6664,6.435207,0.128576,0.544667
6665,6.375961,0.085464,0.559403
6666,6.376427,0.000000,0.565778
6667,6.464620,0.064288,0.548933
6668,6.405584,0.107020,0.552035
6669,6.376194,0.042732,0.562591
6670,6.435230,0.000000,0.559489
6671,6.373260,0.250468,0.507748
6672,6.316393,0.128578,0.557526
6673,6.344826,0.189523,0.532637
6674,6.346177,0.107021,0.558464
6675,6.404234,0.189522,0.526207
6676,6.256428,0.000000,0.578232
6677,6.316427,0.000000,0.572005
6678,6.286410,0.064289,0.567879
6679,6.102257,0.255555,0.535861
6680,6.237787,0.253133,0.522055
6681,6.223539,0.320222,0.485434
6682,6.148299,0.353759,0.470961
6683,6.170022,0.254344,0.528958
6684,6.230663,0.286677,0.503745
6685,6.185919,0.336990,0.478198
6686,6.125278,0.304657,0.503411
6687,6.283751,0.350746,0.456080
6688,6.328506,0.300607,0.481914
6689,6.253645,0.335484,0.470757
6690,6.305523,0.251800,0.514902
6691,6.192029,0.437893,0.387367
6692,6.170164,0.395826,0.429164
6693,6.237890,0.394320,0.421723
6694,5.513479,0.643999,0.000000
6695,5.568583,0.625300,0.136952
6696,5.634522,0.628506,0.091076
6697,5.640383,0.634543,0.000000
6698,5.541031,0.634649,0.068476
6699,5.601552,0.626903,0.114014
6700,5.637452,0.631525,0.045538
6701,5.576931,0.639271,0.000000
6702,5.621451,0.577123,0.267467
6703,5.694674,0.615270,0.136958
6704,5.658063,0.596196,0.202212
6705,5.664598,0.621888,0.114017
6706,5.595017,0.601212,0.202209
6707,5.765485,0.624359,0.000000
6708,5.702934,0.629451,0.000000
6709,5.730079,0.619814,0.068479
6710,5.092713,0.588830,0.310237
6711,5.138948,0.609686,0.263882
6712,5.046357,0.588802,0.311517
6713,5.115830,0.599258,0.287060
6714,5.069474,0.619078,0.243336
6715,5.138965,0.563642,0.351436
6716,5.069483,0.549761,0.373942
6717,5.115839,0.576236,0.330836
6718,5.277691,0.584970,0.302400
6719,5.208319,0.597328,0.283141
6720,5.208328,0.574306,0.326918
6721,6.833480,0.248135,0.451336
6722,6.826403,0.367834,0.361519
6723,6.755065,0.369310,0.371700
6724,6.723443,0.312817,0.424898
6725,6.829941,0.307985,0.406427
6726,6.790734,0.368572,0.366609
6727,6.739254,0.341063,0.398299
6728,6.778461,0.280476,0.438117
6729,6.814391,0.457223,0.241909
6730,6.714178,0.420211,0.320810
6731,6.764284,0.438717,0.281359
6732,6.734622,0.394761,0.346255
6733,6.820397,0.412529,0.301714
6734,6.612396,0.372236,0.391326
6735,6.667919,0.342526,0.408112
6736,6.663287,0.396224,0.356068
6737,5.086236,0.661434,0.075383
6738,5.128573,0.664566,0.000000
6739,5.043118,0.659204,0.094593
6740,5.107404,0.663000,0.037691
6741,5.064287,0.665616,0.000000
6742,5.129361,0.654908,0.113280
6743,5.064680,0.641689,0.168036
6744,5.107798,0.658171,0.094332
6745,5.258055,0.659432,0.000000
6746,5.193314,0.661999,0.000000
6747,5.193708,0.657170,0.056640
6748,5.765485,0.000000,0.624359
6749,5.677751,0.126901,0.618808
6750,5.623204,0.084419,0.630313
6751,5.640383,0.000000,0.634543
6752,5.721618,0.063451,0.621583
6753,5.650478,0.105660,0.624561
6754,5.631793,0.042209,0.632428
6755,5.702934,0.000000,0.629451
6756,5.587972,0.248694,0.588251
6757,5.551661,0.126872,0.628685
6758,5.569816,0.187783,0.608468
6759,5.587432,0.105645,0.629499
6760,5.632862,0.187797,0.603529
6761,5.513479,0.000000,0.643999
6762,5.576931,0.000000,0.639271
6763,5.532570,0.063436,0.636342
6764,6.952307,0.000000,0.501062
6765,6.894759,0.128062,0.491551
6766,6.839040,0.085065,0.507367
6767,6.840633,0.000000,0.514196
6768,6.923533,0.064031,0.496306
6769,6.866900,0.106563,0.499459
6770,6.839837,0.042532,0.510782
6771,6.896470,0.000000,0.507629
6772,6.781783,0.128062,0.505127
6773,6.807631,0.188098,0.478232
6774,6.810412,0.106563,0.506247
6775,6.864119,0.188099,0.471444
6776,6.726337,0.000000,0.527361
6777,6.783485,0.000000,0.520778
6778,6.754060,0.064031,0.516244
6779,6.884332,0.369413,0.350149
6780,6.907643,0.417304,0.286710
6781,6.855368,0.368623,0.355834
6782,6.895988,0.393358,0.318430
6783,6.861017,0.437264,0.264309
6784,6.917650,0.314485,0.395241
6785,6.875565,0.281310,0.423289
6786,6.900991,0.341949,0.372695
6787,7.000060,0.371547,0.327492
6788,6.953852,0.394425,0.307101
6789,6.958855,0.343016,0.361367
6790,6.051278,0.447701,0.397089
6791,6.069273,0.390444,0.451231
6792,6.121653,0.442797,0.392228
6793,6.060276,0.419073,0.424160
6794,6.108786,0.372102,0.461096
6795,5.910464,0.457009,0.406366
6796,6.007486,0.363501,0.480640
6797,5.958975,0.410255,0.443503
6798,6.038379,0.376972,0.465936
6799,5.980871,0.452355,0.401727
6800,6.054871,0.309528,0.508250
6801,6.952307,0.501062,0.000000
6802,6.840633,0.514196,0.000000
6803,6.832577,0.508504,0.082787
6804,6.885100,0.493609,0.124600
6805,6.896470,0.507629,0.000000
6806,6.836605,0.511350,0.041393
6807,6.858839,0.501056,0.103693
6808,6.918704,0.497336,0.062300
6809,6.726337,0.527361,0.000000
6810,6.772121,0.507137,0.124594
6811,6.749229,0.517249,0.062297
6812,6.802349,0.507820,0.103691
6813,6.783485,0.520778,0.000000
6814,6.849746,0.475416,0.183254
6815,6.793256,0.482180,0.183251
6816,8.354239,0.000000,0.314856
6817,8.441947,0.000000,0.301822
6818,8.438327,0.076479,0.292591
6819,8.393353,0.115763,0.286622
6820,8.398093,0.000000,0.308339
6821,8.440137,0.038240,0.297207
6822,8.415840,0.096121,0.289607
6823,8.373796,0.057881,0.300739
6824,8.526129,0.000000,0.289130
6825,8.479203,0.115761,0.272720
6826,8.502666,0.057881,0.280925
6827,8.458765,0.096120,0.282656
6828,8.484038,0.000000,0.295476
6829,8.425656,0.214320,0.215877
6830,8.409505,0.165041,0.251250
6831,8.452430,0.165041,0.244299
6832,9.878858,0.000000,0.038702
6833,9.881749,0.026802,0.026802
6834,9.860214,0.016658,0.040423
6835,9.846627,0.000000,0.047273
6836,9.880303,0.013401,0.032752
6837,9.870981,0.021730,0.033612
6838,9.853421,0.008329,0.043848
6839,9.862743,0.000000,0.042988
6840,9.878858,0.038702,0.000000
6841,9.850264,0.026585,0.037935
6842,9.864561,0.032644,0.018968
6843,9.855239,0.021621,0.039179
6844,9.880303,0.032752,0.013401
6845,9.815107,0.000000,0.055274
6846,9.830867,0.000000,0.051274
6847,9.832686,0.013292,0.046605
6848,9.940970,0.000000,0.020622
6849,9.942700,0.014195,0.014195
6850,9.921910,0.008687,0.024982
6851,9.909626,0.000000,0.030055
6852,9.941835,0.007097,0.017408
6853,9.932305,0.011441,0.019588
6854,9.915768,0.004343,0.027518
6855,9.925298,0.000000,0.025338
6856,9.940970,0.020622,0.000000
6857,9.912076,0.013809,0.025892
6858,9.926523,0.017216,0.012946
6859,9.916993,0.011248,0.025437
6860,9.941835,0.017408,0.007097
6861,9.894242,0.000000,0.034379
6862,9.895467,0.006905,0.032297
6863,5.179136,0.638353,0.179004
6864,5.268799,0.640393,0.155612
6865,5.154248,0.646631,0.146142
6866,5.223967,0.639373,0.167308
6867,5.263427,0.649913,0.077806
6868,5.159042,0.624020,0.221443
6869,5.273245,0.612681,0.229006
6870,6.245321,0.172595,0.553177
6871,6.180786,0.131002,0.571142
6872,6.280857,0.150586,0.555351
6873,6.213054,0.151799,0.562160
6874,6.218607,0.065501,0.574687
6875,6.241554,0.212864,0.537616
6876,6.141521,0.193278,0.553501
6877,8.479263,0.272277,0.116774
6878,8.438381,0.292411,0.077134
6879,8.393415,0.286200,0.116776
6880,8.452460,0.243299,0.166326
6881,8.458822,0.282344,0.096954
6882,8.415898,0.289306,0.096955
6883,8.409536,0.250260,0.166327
6884,8.526129,0.289130,0.000000
6885,8.441947,0.301822,0.000000
6886,8.484038,0.295476,0.000000
6887,8.440164,0.297116,0.038567
6888,8.502696,0.280704,0.058387
6889,8.354239,0.314856,0.000000
6890,8.373827,0.300528,0.058388
6891,8.398093,0.308339,0.000000
6892,9.815107,0.055274,0.000000
6893,9.818912,0.038407,0.038407
6894,9.839629,0.042294,0.024901
6895,9.846627,0.047273,0.000000
6896,9.817010,0.046841,0.019203
6897,9.829270,0.040350,0.031654
6898,9.843128,0.044783,0.012450
6899,9.830867,0.051274,0.000000
6900,9.844946,0.034439,0.031418
6901,9.817010,0.019203,0.046841
6902,9.862743,0.042988,0.000000
6903,9.902023,0.026993,0.017627
6904,9.909626,0.030055,0.000000
6905,9.891886,0.026898,0.022215
6906,9.905825,0.028524,0.008814
6907,9.894242,0.034379,0.000000
6908,9.907050,0.020401,0.021759
6909,9.925298,0.025338,0.000000
6910,10.000000,0.000000,0.000000
6911,9.971530,0.010565,0.000000
6912,9.962016,0.009763,0.009763
6913,9.971530,0.000000,0.010565
6914,9.985765,0.005283,0.000000
6915,9.966773,0.010164,0.004882
6916,9.966773,0.004882,0.010164
6917,9.985765,0.000000,0.005283
6918,9.952358,0.011979,0.011979
6919,9.956250,0.015594,0.000000
6920,9.956250,0.000000,0.015594
6921,6.125393,0.087093,0.584973
6922,6.136505,0.000000,0.590262
6923,6.153090,0.109048,0.578058
6924,6.130949,0.043547,0.587617
6925,6.196467,0.000000,0.584247
6926,6.059367,0.130991,0.583339
6927,6.080812,0.193273,0.559600
6928,6.092380,0.109042,0.584156
6929,6.013654,0.000000,0.602113
6930,6.075080,0.000000,0.596187
6931,6.036511,0.065496,0.592726
6932,8.994277,0.000000,0.214765
6933,8.952903,0.087215,0.203789
6934,8.917999,0.057631,0.220000
6935,8.922387,0.000000,0.226660
6936,8.973590,0.043607,0.209277
6937,8.935451,0.072423,0.211894
6938,8.920193,0.028815,0.223330
6939,8.958332,0.000000,0.220713
6940,8.906117,0.161523,0.162726
6941,8.878985,0.087216,0.216909
6942,8.892551,0.124369,0.189817
6943,8.898492,0.072423,0.218454
6944,8.929510,0.124369,0.183257
6945,8.846238,0.000000,0.239053
6946,8.884312,0.000000,0.232856
6947,8.862611,0.043608,0.227981
6948,8.846238,0.239053,0.000000
6949,8.879038,0.216583,0.087998
6950,8.918045,0.219859,0.058136
6951,8.922387,0.226660,0.000000
6952,8.862638,0.227818,0.043999
6953,8.898541,0.218221,0.073067
6954,8.920216,0.223259,0.029068
6955,8.884312,0.232856,0.000000
6956,8.952953,0.203443,0.087996
6957,8.929535,0.182483,0.125361
6958,8.935499,0.211651,0.073066
6959,8.892578,0.189053,0.125362
6960,8.994277,0.214765,0.000000
6961,8.958332,0.220713,0.000000
6962,8.973615,0.209104,0.043998
6963,7.172679,0.000000,0.474388
6964,7.281179,0.000000,0.460897
6965,7.286449,0.064769,0.455706
6966,7.236010,0.097410,0.456339
6967,7.226929,0.000000,0.467643
6968,7.283814,0.032384,0.458302
6969,7.261230,0.081089,0.456022
6970,7.204344,0.048705,0.465363
6971,7.386469,0.000000,0.447585
6972,7.342887,0.097406,0.442608
6973,7.364678,0.048703,0.445097
6974,7.314668,0.081088,0.449157
6975,7.333824,0.000000,0.454241
6976,7.296713,0.190426,0.417640
6977,7.266361,0.143918,0.436989
6978,7.319800,0.143916,0.430124
6979,7.593743,0.420748,0.000000
6980,7.611462,0.407797,0.093993
6981,7.672806,0.405553,0.062492
6982,7.695759,0.407231,0.000000
6983,7.602603,0.414273,0.046996
6984,7.642134,0.406675,0.078242
6985,7.684282,0.406392,0.031246
6986,7.644751,0.413990,0.000000
6987,7.626364,0.374032,0.183200
6988,7.711847,0.394098,0.094006
6989,7.669106,0.384065,0.138603
6990,7.692327,0.399825,0.078249
6991,7.618913,0.390915,0.138596
6992,7.794550,0.393947,0.000000
6993,7.745154,0.400589,0.000000
6994,7.753199,0.394022,0.047003
6995,7.593743,0.000000,0.420748
6996,7.695759,0.000000,0.407231
6997,7.731275,0.047316,0.399721
6998,7.699362,0.071124,0.400542
6999,7.644751,0.000000,0.413990
7000,7.713517,0.023658,0.403476
7001,7.715318,0.059220,0.400131
7002,7.646553,0.035562,0.410645
7003,7.794550,0.000000,0.393947
7004,7.799735,0.071107,0.386820
7005,7.797142,0.035554,0.390383
7006,7.765505,0.059211,0.393270
7007,7.745154,0.000000,0.400589
7008,7.803183,0.139908,0.367087
7009,7.751273,0.105516,0.383814
7010,7.801459,0.105508,0.376954
7011,8.516578,0.137633,0.255934
7012,8.508027,0.194724,0.217353
7013,8.497890,0.126697,0.264327
7014,8.512303,0.166178,0.236643
7015,8.466842,0.204522,0.216615
7016,8.560594,0.092359,0.268493
7017,8.543362,0.046180,0.278811
7018,8.538586,0.114996,0.262213
7019,8.590249,0.174471,0.218096
7020,8.549138,0.184597,0.217724
7021,8.575422,0.133415,0.243294
7022,8.690087,0.000000,0.263862
7023,8.642501,0.092362,0.255119
7024,8.604266,0.061173,0.270397
7025,8.609565,0.000000,0.276365
7026,8.666294,0.046181,0.259490
7027,8.623383,0.076767,0.262758
7028,8.606915,0.030586,0.273381
7029,8.649826,0.000000,0.270113
7030,8.582430,0.076766,0.269445
7031,8.616375,0.133416,0.236607
7032,8.567847,0.000000,0.282748
7033,8.517368,0.244603,0.156618
7034,8.512698,0.219663,0.186985
7035,8.498316,0.258440,0.136696
7036,8.562388,0.256642,0.120769
7037,8.576319,0.215556,0.169433
7038,8.539878,0.250622,0.138693
7039,8.544258,0.272886,0.060385
7040,7.439830,0.307996,0.315164
7041,7.328135,0.344600,0.296970
7042,7.318824,0.299152,0.344265
7043,7.369115,0.252951,0.371887
7044,7.383983,0.326298,0.306067
7045,7.323480,0.321876,0.320618
7046,7.343970,0.276052,0.358076
7047,7.404473,0.280474,0.343525
7048,7.216024,0.378705,0.276621
7049,7.258221,0.293979,0.358596
7050,7.237122,0.336342,0.317608
7051,7.288523,0.296566,0.351431
7052,7.272079,0.361653,0.286796
7053,7.332914,0.221689,0.394763
7054,7.277467,0.242202,0.388118
7055,7.439178,0.365419,0.246538
7056,7.364807,0.369949,0.256731
7057,7.439504,0.336708,0.280851
7058,7.401992,0.367684,0.251635
7059,7.346471,0.357275,0.276851
7060,7.436237,0.408085,0.167932
7061,7.326553,0.396311,0.223929
7062,7.381395,0.402198,0.195930
7063,7.345680,0.383130,0.240330
7064,7.437707,0.386752,0.207235
7065,7.271288,0.387508,0.250275
7066,5.728082,0.178948,0.601556
7067,5.707783,0.263010,0.571625
7068,5.702917,0.152925,0.610182
7069,5.717932,0.220979,0.586590
7070,5.647878,0.255852,0.579938
7071,5.797912,0.142171,0.605234
7072,5.781698,0.071085,0.614796
7073,5.762997,0.160559,0.603395
7074,5.827486,0.276765,0.553781
7075,5.767635,0.269888,0.562703
7076,5.812699,0.209468,0.579508
7077,5.947690,0.335510,0.507316
7078,5.964906,0.266324,0.545155
7079,5.977588,0.349505,0.493978
7080,5.956298,0.300917,0.526236
7081,6.033581,0.260939,0.540508
7082,5.869953,0.373574,0.488806
7083,5.890209,0.415291,0.447586
7084,5.908821,0.354542,0.498061
7085,5.896196,0.271545,0.549468
7086,5.848719,0.325170,0.521294
7087,5.792778,0.443896,0.435586
7088,5.804990,0.392851,0.480802
7089,5.851621,0.450452,0.420976
7090,5.798884,0.418373,0.458194
7091,5.837471,0.383212,0.484804
7092,5.674916,0.429323,0.463373
7093,5.751734,0.356675,0.513795
7094,5.713325,0.392999,0.488584
7095,5.778362,0.374763,0.497299
7096,5.733847,0.436609,0.449480
7097,5.789610,0.316720,0.533788
7098,6.142518,0.504536,0.305197
7099,6.065382,0.490453,0.340621
7100,6.167273,0.471214,0.346282
7101,6.103950,0.497495,0.322909
7102,6.058330,0.469077,0.368855
7103,6.091166,0.555218,0.213345
7104,6.001735,0.514459,0.314979
7105,6.046450,0.534839,0.264162
7106,6.033559,0.502456,0.327800
7107,6.116842,0.529877,0.259271
7108,5.956099,0.485734,0.360672
7109,5.821190,0.610952,0.103561
7110,5.885543,0.610069,0.068941
7111,5.890697,0.613442,0.000000
7112,5.793338,0.617655,0.051780
7113,5.853367,0.610510,0.086251
7114,5.888120,0.611755,0.034471
7115,5.828091,0.618900,0.000000
7116,5.875353,0.580046,0.204172
7117,5.945307,0.599686,0.103564
7118,5.910330,0.589866,0.153868
7119,5.915425,0.604877,0.086253
7120,5.848272,0.595499,0.153866
7121,6.013654,0.602113,0.000000
7122,5.952176,0.607777,0.000000
7123,5.979481,0.600899,0.051782
7124,5.893937,0.528378,0.311085
7125,5.803169,0.545668,0.296819
7126,5.766556,0.523001,0.340793
7127,5.902201,0.492693,0.358725
7128,5.848553,0.537023,0.303952
7129,5.784863,0.534335,0.318806
7130,5.838510,0.490005,0.373580
7131,5.748493,0.579594,0.236232
7132,5.811923,0.579820,0.220202
7133,5.775831,0.562631,0.266525
7134,5.884645,0.554212,0.257628
7135,5.694004,0.550062,0.304130
7136,5.684972,0.578359,0.251849
7137,5.755025,0.604534,0.160040
7138,5.724850,0.609902,0.148499
7139,5.788108,0.607743,0.131800
7140,5.751759,0.592064,0.198136
7141,5.449655,0.582189,0.285495
7142,5.456239,0.546652,0.347771
7143,5.545380,0.524749,0.369268
7144,5.535553,0.579656,0.276481
7145,5.452947,0.564421,0.316633
7146,5.500810,0.535701,0.358519
7147,5.583415,0.550936,0.318367
7148,5.373254,0.527010,0.385750
7149,5.325473,0.555990,0.344075
7150,5.414747,0.536831,0.366760
7151,5.363673,0.583579,0.293948
7152,5.467828,0.455707,0.459312
7153,5.506604,0.490228,0.414290
7154,5.420541,0.491359,0.422531
7155,5.441419,0.267776,0.591166
7156,5.450820,0.335174,0.554907
7157,5.381837,0.376170,0.533273
7158,5.368075,0.276892,0.591686
7159,5.446119,0.301475,0.573036
7160,5.416328,0.355672,0.544090
7161,5.338284,0.331089,0.562740
7162,5.528736,0.358733,0.533472
7163,5.558354,0.303713,0.560861
7164,5.489778,0.346953,0.544189
7165,5.514695,0.258235,0.589708
7166,5.424832,0.415938,0.496292
7167,5.498282,0.407220,0.496392
7168,9.592587,0.000000,0.105210
7169,9.578147,0.042480,0.099510
7170,9.551121,0.028061,0.110184
7171,9.548242,0.000000,0.114261
7172,9.585367,0.021240,0.102360
7173,9.564634,0.035270,0.104847
7174,9.549682,0.014030,0.112222
7175,9.570415,0.000000,0.109735
7176,9.560473,0.078753,0.079305
7177,9.529888,0.042490,0.110046
7178,9.545180,0.060622,0.094676
7179,9.540505,0.035275,0.110115
7180,9.569310,0.060616,0.089408
7181,9.495854,0.000000,0.124686
7182,9.522048,0.000000,0.119473
7183,9.512871,0.021245,0.117366
7184,9.495854,0.124686,0.000000
7185,9.529918,0.109901,0.042848
7186,9.551147,0.110120,0.028292
7187,9.548242,0.114261,0.000000
7188,9.512886,0.117293,0.021424
7189,9.540533,0.110010,0.035570
7190,9.549695,0.112190,0.014146
7191,9.522048,0.119473,0.000000
7192,9.578175,0.099350,0.042837
7193,9.569324,0.089051,0.061071
7194,9.564661,0.104735,0.035564
7195,9.545195,0.094327,0.061077
7196,9.592587,0.105210,0.000000
7197,9.570415,0.109735,0.000000
7198,9.585381,0.102280,0.021419
7199,6.494034,0.553200,0.000000
7200,6.376427,0.565778,0.000000
7201,6.358836,0.563990,0.064568
7202,6.409745,0.553899,0.097006
7203,6.435230,0.559489,0.000000
7204,6.367631,0.564884,0.032284
7205,6.384290,0.558944,0.080787
7206,6.451889,0.553550,0.048503
7207,6.256428,0.578232,0.000000
7208,6.290927,0.566527,0.096993
7209,6.273677,0.572379,0.048496
7210,6.324881,0.565258,0.080781
7211,6.316427,0.572005,0.000000
7212,6.323715,0.538466,0.191201
7213,6.366730,0.546182,0.144103
7214,6.307321,0.552496,0.144097
7215,6.491896,0.219114,0.508296
7216,6.532880,0.273952,0.475738
7217,6.493520,0.314989,0.454777
7218,6.432578,0.234791,0.508022
7219,6.512388,0.246533,0.492017
7220,6.513200,0.294471,0.465257
7221,6.433390,0.282729,0.481262
7222,6.610330,0.187021,0.507135
7223,6.612588,0.285457,0.458568
7224,6.611459,0.236239,0.482851
7225,6.572734,0.279704,0.467153
7226,6.551113,0.203067,0.507715
7227,6.552958,0.343613,0.423052
7228,6.612492,0.328846,0.424947
7229,6.686263,0.273053,0.456470
7230,6.722086,0.218240,0.480689
7231,6.704853,0.292935,0.440684
7232,6.704175,0.245646,0.468580
7233,6.777783,0.233188,0.466012
7234,6.649426,0.279255,0.457519
7235,6.666208,0.202631,0.493912
7236,6.493700,0.148700,0.532990
7237,6.464454,0.138638,0.538828
7238,6.492798,0.183907,0.520643
7239,6.553113,0.094975,0.538515
7240,6.523573,0.047488,0.545858
7241,6.523407,0.121838,0.535752
7242,6.581721,0.140998,0.522825
7243,6.369734,0.495164,0.275205
7244,6.438946,0.500654,0.249067
7245,6.450346,0.523378,0.193534
7246,6.346724,0.516815,0.233203
7247,6.404340,0.497909,0.262136
7248,6.444646,0.512016,0.221301
7249,6.387031,0.530922,0.192368
7250,6.414095,0.438100,0.351538
7251,6.496222,0.478640,0.276911
7252,6.455159,0.458370,0.314225
7253,6.467584,0.489647,0.262989
7254,6.391915,0.466632,0.313372
7255,6.576924,0.507819,0.195693
7256,6.513635,0.515599,0.194614
7257,6.536573,0.493230,0.236302
7258,6.465734,0.540767,0.130800
7259,6.536486,0.539555,0.099507
7260,6.437739,0.547333,0.113903
7261,6.501110,0.540161,0.115154
7262,6.515260,0.546378,0.049753
7263,6.458040,0.532073,0.162167
7264,6.556705,0.523687,0.147600
7265,6.668962,0.453740,0.281270
7266,6.596106,0.450861,0.300755
7267,6.691570,0.436975,0.301040
7268,6.632534,0.452300,0.291012
7269,6.604251,0.411549,0.346041
7270,6.695781,0.483510,0.219250
7271,6.755086,0.470367,0.230580
7272,6.682371,0.468625,0.250260
7273,6.586515,0.479340,0.248224
7274,6.636352,0.495665,0.207472
7275,8.313776,0.068477,0.313469
7276,8.267621,0.045538,0.324401
7277,8.266250,0.000000,0.327746
7278,8.334008,0.034239,0.314162
7279,8.290699,0.057008,0.318935
7280,8.266936,0.022769,0.326073
7281,8.310245,0.000000,0.321301
7282,8.271255,0.133967,0.298364
7283,8.223973,0.068478,0.326834
7284,8.247614,0.101223,0.312599
7285,8.245797,0.057008,0.325617
7286,8.292516,0.101222,0.305917
7287,8.174578,0.000000,0.340986
7288,8.220414,0.000000,0.334366
7289,8.199276,0.034239,0.333910
7290,8.132433,0.244971,0.245679
7291,8.157175,0.132391,0.316996
7292,8.195224,0.133080,0.310775
7293,8.202625,0.192573,0.276468
7294,8.144804,0.188681,0.281337
7295,8.176199,0.132735,0.313886
7296,8.198924,0.162827,0.293622
7297,8.167529,0.218772,0.261073
7298,8.209599,0.100779,0.318805
7299,8.165876,0.066195,0.328991
7300,8.236940,0.163270,0.287416
7301,8.352652,0.122063,0.290538
7302,8.373003,0.118913,0.288580
7303,8.333214,0.095270,0.302003
7304,8.349198,0.176971,0.261285
7305,8.387427,0.195646,0.238581
7306,8.350925,0.149517,0.275912
7307,8.310227,0.155469,0.279825
7308,8.202671,0.276100,0.193087
7309,8.195266,0.310605,0.133461
7310,8.157201,0.316799,0.132851
7311,8.167552,0.260536,0.219383
7312,8.198969,0.293352,0.163274
7313,8.176234,0.313702,0.133156
7314,8.144817,0.280885,0.189265
7315,8.271329,0.298248,0.134200
7316,8.224014,0.326802,0.068603
7317,8.247672,0.312525,0.101401
7318,8.209640,0.318703,0.101032
7319,8.237000,0.287174,0.163644
7320,8.174578,0.340986,0.000000
7321,8.165889,0.328893,0.066426
7322,8.199296,0.333894,0.034301
7323,8.266250,0.327746,0.000000
7324,8.267649,0.324385,0.045620
7325,8.313817,0.313435,0.068602
7326,8.310245,0.321301,0.000000
7327,8.266950,0.326066,0.022810
7328,8.290733,0.318910,0.057111
7329,8.334028,0.314146,0.034301
7330,8.245832,0.325593,0.057112
7331,8.220414,0.334366,0.000000
7332,8.292573,0.305842,0.101401
7333,8.352717,0.290215,0.122803
7334,8.333267,0.301825,0.095702
7335,8.373066,0.288208,0.119789
7336,8.349261,0.260584,0.177983
7337,8.310295,0.279416,0.156091
7338,8.350989,0.275400,0.150393
7339,8.387459,0.237452,0.196930
7340,6.707159,0.508247,0.149027
7341,6.739640,0.507692,0.136811
7342,6.701470,0.495879,0.184139
7343,6.652643,0.526452,0.099514
7344,6.689490,0.526906,0.049757
7345,6.679901,0.517349,0.124271
7346,6.614784,0.517136,0.147604
7347,6.600004,0.537555,0.066220
7348,6.611659,0.540275,0.000000
7349,6.568245,0.538555,0.082863
7350,6.605831,0.538915,0.033110
7351,6.552846,0.546738,0.000000
7352,6.626323,0.532003,0.082867
7353,6.668998,0.533818,0.000000
7354,6.724700,0.148303,0.506380
7355,6.723393,0.183272,0.493535
7356,6.753242,0.138182,0.505754
7357,6.669265,0.094975,0.525387
7358,6.639797,0.140998,0.516261
7359,6.696982,0.121639,0.515884
7360,6.697801,0.047487,0.526374
7361,6.611659,0.000000,0.540275
7362,6.611068,0.063209,0.536676
7363,6.552846,0.000000,0.546738
7364,6.611363,0.031605,0.538476
7365,6.582090,0.079092,0.537596
7366,6.640166,0.079092,0.531031
7367,6.668998,0.000000,0.533818
7368,6.016530,0.199209,0.568036
7369,6.016283,0.134227,0.586815
7370,6.059393,0.227382,0.551948
7371,6.016406,0.166718,0.577425
7372,6.037825,0.132609,0.585077
7373,5.930138,0.140533,0.593571
7374,5.972275,0.070738,0.601895
7375,5.951206,0.105635,0.597733
7376,5.994279,0.102483,0.594355
7377,5.973334,0.169871,0.580803
7378,5.992965,0.035369,0.602004
7379,5.890697,0.000000,0.613442
7380,5.903438,0.047136,0.610504
7381,5.848187,0.070751,0.613204
7382,5.828091,0.000000,0.618900
7383,5.897068,0.023568,0.611973
7384,5.875813,0.058943,0.611854
7385,5.806836,0.035375,0.618781
7386,5.937857,0.058937,0.606199
7387,5.952176,0.000000,0.607777
7388,5.889162,0.105642,0.603387
7389,5.953623,0.225614,0.564391
7390,5.959264,0.245969,0.554773
7391,5.985076,0.212412,0.566213
7392,5.879182,0.210067,0.577570
7393,5.853334,0.243416,0.565676
7394,5.916402,0.217841,0.570980
7395,5.904660,0.175300,0.585570
7396,5.842015,0.141649,0.601421
7397,5.845101,0.106200,0.607312
7398,5.819963,0.141910,0.603327
7399,5.860598,0.175858,0.589495
7400,7.186291,0.137171,0.452465
7401,7.130683,0.108869,0.467113
7402,7.211151,0.117290,0.454402
7403,7.158487,0.123020,0.459789
7404,7.151681,0.054435,0.470750
7405,7.191231,0.201395,0.427043
7406,7.243972,0.195910,0.422341
7407,7.188761,0.169283,0.439754
7408,7.085714,0.212239,0.436184
7409,7.108199,0.160554,0.451648
7410,7.138473,0.206817,0.431614
7411,6.053369,0.588510,0.108478
7412,6.121292,0.587388,0.072195
7413,6.136505,0.590262,0.000000
7414,6.033512,0.595311,0.054239
7415,6.087330,0.587949,0.090337
7416,6.128898,0.588825,0.036098
7417,6.075080,0.596187,0.000000
7418,6.174782,0.576436,0.108492
7419,6.132974,0.565827,0.160918
7420,6.148037,0.581912,0.090344
7421,6.072267,0.571864,0.160912
7422,6.196467,0.584247,0.000000
7423,6.215605,0.577334,0.054246
7424,7.020514,0.108875,0.480825
7425,6.958685,0.157478,0.474975
7426,6.986411,0.054437,0.490943
7427,6.989600,0.133176,0.477900
7428,6.926722,0.142770,0.483263
7429,6.959635,0.230333,0.444041
7430,7.022674,0.221286,0.440112
7431,6.959160,0.193905,0.459508
7432,7.053114,0.160557,0.458505
7433,6.896557,0.239234,0.447688
7434,6.973991,0.281607,0.411268
7435,7.044020,0.297602,0.389292
7436,6.945820,0.298046,0.403255
7437,7.009005,0.289604,0.400280
7438,7.022040,0.334574,0.358392
7439,6.966813,0.255970,0.427654
7440,7.064867,0.254920,0.412738
7441,7.064112,0.000000,0.487652
7442,7.071564,0.072367,0.481396
7443,7.008209,0.000000,0.494357
7444,7.067838,0.036183,0.484524
7445,7.046039,0.090621,0.481111
7446,7.101123,0.090618,0.474254
7447,7.118395,0.000000,0.481020
7448,7.386469,0.447585,0.000000
7449,7.412421,0.436023,0.085566
7450,7.473102,0.432784,0.056931
7451,7.491651,0.434071,0.000000
7452,7.399445,0.441804,0.042783
7453,7.442761,0.434403,0.071249
7454,7.482376,0.433427,0.028466
7455,7.439060,0.440828,0.000000
7456,7.516048,0.422393,0.085576
7457,7.476142,0.415239,0.126754
7458,7.494575,0.427588,0.071254
7459,7.424329,0.422054,0.126749
7460,7.542697,0.427410,0.000000
7461,7.554896,0.421570,0.042788
7462,7.671321,0.124759,0.391154
7463,7.605294,0.116584,0.402777
7464,7.685342,0.097942,0.395848
7465,7.638308,0.120671,0.396965
7466,7.599519,0.058292,0.411762
7467,7.708128,0.182918,0.362025
7468,7.755656,0.161413,0.364556
7469,7.689725,0.153838,0.376589
7470,7.612510,0.224025,0.353207
7471,7.608902,0.170304,0.377992
7472,7.660319,0.203471,0.357616
7473,9.801218,0.024354,0.053417
7474,9.784400,0.016099,0.060687
7475,9.783246,0.000000,0.063051
7476,9.808163,0.012177,0.054346
7477,9.792809,0.020227,0.057052
7478,9.783823,0.008050,0.061869
7479,9.799177,0.000000,0.059163
7480,9.785155,0.045014,0.043476
7481,9.768702,0.024362,0.061902
7482,9.776928,0.034688,0.052689
7483,9.776551,0.020230,0.061294
7484,9.793187,0.034684,0.048446
7485,9.749861,0.000000,0.070920
7486,9.766553,0.000000,0.066986
7487,9.759281,0.012181,0.066411
7488,9.749861,0.070920,0.000000
7489,9.754446,0.049385,0.049385
7490,9.764717,0.048002,0.047367
7491,9.768603,0.062309,0.023369
7492,9.752153,0.060153,0.024693
7493,9.759582,0.048694,0.048376
7494,9.766660,0.055156,0.035368
7495,9.759232,0.066615,0.011684
7496,9.766710,0.036182,0.054634
7497,9.752153,0.024693,0.060153
7498,9.776879,0.053661,0.033422
7499,9.807636,0.040695,0.040072
7500,9.813274,0.039551,0.039239
7501,9.804427,0.032525,0.046744
7502,9.801128,0.053883,0.023363
7503,9.808118,0.054579,0.011681
7504,9.804382,0.047289,0.031717
7505,9.793142,0.049448,0.033419
7506,9.784317,0.060874,0.015456
7507,9.783246,0.063051,0.000000
7508,9.776460,0.061592,0.019413
7509,9.783781,0.061963,0.007728
7510,9.766553,0.066986,0.000000
7511,9.792723,0.057379,0.019410
7512,9.799177,0.059163,0.000000
7513,8.025377,0.254659,0.257376
7514,8.024344,0.220179,0.287639
7515,8.077066,0.196474,0.295485
7516,8.078905,0.249815,0.251528
7517,8.024861,0.237419,0.272508
7518,8.050705,0.208327,0.291562
7519,8.104750,0.220723,0.270582
7520,7.918288,0.264176,0.268902
7521,7.969981,0.206108,0.307094
7522,7.944135,0.235142,0.287998
7523,7.997163,0.213144,0.297366
7524,7.971833,0.259417,0.263139
7525,8.019874,0.140810,0.334539
7526,8.048470,0.168642,0.315012
7527,7.994928,0.173459,0.320816
7528,7.988075,0.000000,0.367354
7529,8.083233,0.000000,0.353994
7530,8.061728,0.047771,0.353855
7531,8.004969,0.071799,0.357923
7532,8.035654,0.000000,0.360674
7533,8.072481,0.023886,0.353925
7534,8.033349,0.059785,0.355889
7535,7.996522,0.035900,0.362639
7536,8.098205,0.071810,0.344528
7537,8.136392,0.035905,0.342757
7538,8.079967,0.059791,0.349192
7539,8.128906,0.000000,0.347490
7540,8.012422,0.106305,0.346231
7541,8.059040,0.106310,0.339533
7542,8.111397,0.135231,0.322880
7543,8.094232,0.165853,0.309183
7544,8.134286,0.133811,0.319938
7545,8.104801,0.103521,0.333704
7546,7.988075,0.367354,0.000000
7547,8.007152,0.357439,0.072658
7548,8.063189,0.353571,0.048339
7549,8.083233,0.353994,0.000000
7550,7.997614,0.362397,0.036329
7551,8.035171,0.355505,0.060498
7552,8.073211,0.353782,0.024169
7553,8.035654,0.360674,0.000000
7554,8.024186,0.333200,0.142415
7555,8.100387,0.344032,0.072668
7556,8.062287,0.338616,0.107541
7557,8.081788,0.348802,0.060503
7558,8.015669,0.345320,0.107536
7559,8.128906,0.347490,0.000000
7560,8.137483,0.342509,0.036334
7561,8.112853,0.322291,0.136096
7562,8.079209,0.294366,0.197601
7563,8.135027,0.319545,0.134474
7564,8.096031,0.308329,0.166849
7565,8.105821,0.269669,0.221640
7566,8.106620,0.333162,0.104382
7567,8.051698,0.313783,0.170008
7568,8.025802,0.285463,0.222656
7569,8.052505,0.289915,0.210128
7570,8.025589,0.270061,0.240016
7571,7.972195,0.304360,0.209573
7572,7.998191,0.318780,0.175994
7573,7.998998,0.294912,0.216114
7574,7.945242,0.284268,0.239237
7575,7.386399,0.167655,0.415087
7576,7.405147,0.218075,0.388148
7577,7.341556,0.179040,0.416363
7578,7.395773,0.192865,0.401617
7579,7.387131,0.235513,0.380017
7580,7.475952,0.144488,0.411557
7581,7.459207,0.231651,0.372023
7582,7.467579,0.188070,0.391790
7583,7.432177,0.224863,0.380085
7584,7.431176,0.156072,0.413322
7585,7.449519,0.269824,0.343594
7586,5.074857,0.487235,0.453709
7587,5.142707,0.524835,0.406806
7588,5.037429,0.511558,0.425079
7589,5.108782,0.506035,0.430258
7590,5.140836,0.544238,0.379121
7591,5.214142,0.517999,0.411146
7592,5.181835,0.474760,0.457766
7593,5.178425,0.521417,0.408976
7594,5.112192,0.459378,0.479047
7595,5.245916,0.551484,0.356773
7596,5.049923,0.458652,0.483153
7597,5.024961,0.464982,0.477233
7598,5.062390,0.472943,0.468431
7599,5.074784,0.414626,0.520936
7600,5.037392,0.405537,0.528409
7601,5.062353,0.436639,0.502045
7602,5.112156,0.423074,0.512661
7603,5.049965,0.355035,0.563817
7604,5.024983,0.333915,0.576295
7605,5.062374,0.384830,0.542377
7606,5.062479,0.344049,0.570221
7607,7.893152,0.380493,0.000000
7608,7.872861,0.379956,0.050638
7609,7.911661,0.370264,0.076117
7610,7.940614,0.373923,0.000000
7611,7.883007,0.380224,0.025319
7612,7.892261,0.375110,0.063378
7613,7.949868,0.368809,0.038059
7614,7.814912,0.383772,0.076107
7615,7.804731,0.388859,0.038054
7616,7.843886,0.381864,0.063373
7617,7.843851,0.387220,0.000000
7618,7.833243,0.358931,0.149318
7619,7.872452,0.364597,0.112717
7620,7.824077,0.371351,0.112712
7621,7.926129,0.324323,0.190143
7622,7.876792,0.317767,0.213291
7623,7.949162,0.314341,0.199858
7624,7.901460,0.321045,0.201717
7625,7.897540,0.290972,0.241096
7626,7.928728,0.346154,0.145904
7627,7.976457,0.339677,0.144159
7628,7.927428,0.335238,0.168023
7629,7.855017,0.338349,0.181304
7630,7.880985,0.352542,0.147611
7631,7.949402,0.359425,0.098967
7632,7.930531,0.364844,0.087542
7633,7.978277,0.358432,0.085813
7634,7.939065,0.352790,0.122435
7635,7.861833,0.206352,0.324760
7636,7.914682,0.184835,0.329199
7637,7.890060,0.235264,0.296831
7638,7.888258,0.195594,0.326980
7639,7.942332,0.195472,0.318146
7640,7.911553,0.140423,0.350973
7641,7.857368,0.140166,0.359030
7642,7.913117,0.162629,0.340086
7643,7.832508,0.173130,0.345924
7644,7.965713,0.140617,0.342756
7645,7.937873,0.095092,0.362120
7646,7.896491,0.071122,0.373378
7647,7.971421,0.083446,0.360021
7648,7.917182,0.083107,0.367749
7649,7.942283,0.035561,0.370366
7650,7.924713,0.117758,0.356547
7651,7.849837,0.105515,0.370233
7652,7.862715,0.047330,0.381778
7653,7.893152,0.000000,0.380493
7654,7.879603,0.059226,0.377578
7655,7.877934,0.023665,0.381136
7656,7.940614,0.000000,0.373923
7657,7.831225,0.059219,0.384299
7658,7.843851,0.000000,0.387220
7659,8.351640,0.222407,0.223321
7660,8.325516,0.195729,0.251945
7661,8.388648,0.218363,0.219599
7662,8.338578,0.209068,0.237633
7663,8.337357,0.186350,0.256615
7664,8.277604,0.230402,0.230673
7665,8.275191,0.185156,0.268823
7666,8.276397,0.207779,0.249748
7667,8.300354,0.190443,0.260384
7668,8.314622,0.226404,0.226997
7669,8.273223,0.159562,0.283594
7670,8.227781,0.206041,0.261955
7671,8.205027,0.237727,0.238217
7672,8.215203,0.199307,0.269212
7673,8.216404,0.221884,0.250086
7674,8.168730,0.241349,0.241948
7675,8.251486,0.195599,0.265389
7676,8.241315,0.234064,0.234445
7677,8.325553,0.251353,0.196478
7678,8.337407,0.255969,0.187230
7679,8.338596,0.236880,0.209900
7680,8.275230,0.268635,0.185419
7681,8.273280,0.283441,0.159809
7682,8.300391,0.259994,0.190948
7683,8.276417,0.249518,0.208046
7684,8.227811,0.261610,0.206472
7685,8.216419,0.249669,0.222344
7686,8.215241,0.268855,0.199780
7687,8.251520,0.265123,0.195945
7688,7.101885,0.328000,0.354510
7689,7.108116,0.375601,0.302439
7690,7.072952,0.312801,0.371901
7691,7.105001,0.351801,0.328475
7692,7.054088,0.373574,0.314966
7693,7.152568,0.304306,0.367044
7694,7.119141,0.258273,0.401614
7695,7.127226,0.316153,0.360777
7696,7.162070,0.377153,0.289530
7697,7.184296,0.341506,0.321832
7698,7.201065,0.267731,0.387313
7699,7.229643,0.280855,0.372955
7700,7.196148,0.234563,0.407178
7701,7.176816,0.286019,0.377178
7702,6.303096,0.438251,0.369667
7703,6.310808,0.478430,0.314613
7704,6.258947,0.497223,0.294659
7705,6.247563,0.438072,0.378517
7706,6.306952,0.458340,0.342140
7707,6.284877,0.487826,0.304636
7708,6.225488,0.467558,0.341013
7709,6.340271,0.486797,0.294909
7710,6.358596,0.438175,0.360603
7711,6.291331,0.517844,0.242930
7712,6.535484,0.446910,0.318223
7713,6.513391,0.406152,0.372335
7714,6.565795,0.448886,0.309489
7715,6.524437,0.426531,0.345279
7716,6.562894,0.389194,0.381831
7717,6.515853,0.462775,0.297567
7718,6.463743,0.422126,0.361937
7719,6.327578,0.382680,0.423505
7720,6.305664,0.366713,0.439793
7721,6.315337,0.410465,0.396586
7722,6.395071,0.352518,0.439903
7723,6.384166,0.301493,0.473825
7724,6.361324,0.367599,0.431704
7725,6.404583,0.395309,0.395720
7726,6.467589,0.359637,0.423978
7727,6.490490,0.382894,0.398157
7728,6.480554,0.337313,0.439378
7729,6.431330,0.356078,0.431940
7730,7.621461,0.310438,0.278446
7731,7.560941,0.309663,0.291046
7732,7.526477,0.267478,0.336026
7733,7.616986,0.267232,0.315827
7734,7.591201,0.310051,0.284746
7735,7.543709,0.288570,0.313536
7736,7.569493,0.245751,0.344616
7737,7.533903,0.346001,0.252834
7738,7.580133,0.360016,0.218017
7739,7.547422,0.327832,0.271940
7740,7.623913,0.342235,0.230823
7741,7.483153,0.287737,0.325595
7742,7.486866,0.326999,0.283999
7743,5.649118,0.512833,0.372413
7744,5.736352,0.494861,0.384551
7745,5.635285,0.544978,0.319940
7746,5.692735,0.503847,0.378482
7747,5.751454,0.508931,0.362672
7748,5.764565,0.469379,0.410069
7749,5.662017,0.471078,0.417893
7750,5.697390,0.322039,0.541469
7751,5.632185,0.344182,0.533815
7752,5.702587,0.292525,0.556547
7753,5.664787,0.333110,0.537642
7754,5.610078,0.296438,0.561033
7755,5.724562,0.339357,0.527632
7756,5.653550,0.386752,0.498594
7757,5.588815,0.495110,0.403015
7758,5.567098,0.509930,0.386142
7759,5.618967,0.503971,0.387714
7760,5.571403,0.442803,0.461643
7761,5.519615,0.449255,0.460478
7762,5.580109,0.468957,0.432329
7763,5.623159,0.436063,0.462508
7764,5.577621,0.383677,0.511319
7765,5.604903,0.363929,0.522567
7766,5.553179,0.371205,0.522395
7767,5.574512,0.413240,0.486481
7768,5.463584,0.074155,0.643225
7769,5.395143,0.049428,0.649996
7770,5.386524,0.000000,0.652374
7771,5.488532,0.037077,0.643612
7772,5.429364,0.061792,0.646610
7773,5.390834,0.024714,0.651185
7774,5.450002,0.000000,0.648186
7775,5.413115,0.147338,0.633942
7776,5.335841,0.074177,0.651192
7777,5.374478,0.110758,0.642567
7778,5.365492,0.061803,0.650594
7779,5.438350,0.110746,0.638583
7780,5.322290,0.000000,0.655903
7781,5.296948,0.037089,0.655312
7782,5.322590,0.146972,0.639536
7783,5.354167,0.218070,0.617022
7784,5.299911,0.146838,0.640796
7785,5.338378,0.182521,0.628279
7786,5.324449,0.252039,0.604615
7787,5.329215,0.110575,0.645364
7788,5.383641,0.182704,0.625482
7789,5.505468,0.133821,0.630626
7790,5.528565,0.130347,0.629656
7791,5.484526,0.103988,0.636926
7792,5.500727,0.198830,0.613608
7793,5.544349,0.223762,0.600930
7794,5.503098,0.166326,0.622117
7795,5.456921,0.173084,0.623775
7796,5.432166,0.228580,0.608076
7797,5.393166,0.223325,0.612549
7798,5.436792,0.248178,0.599621
7799,5.466447,0.213705,0.610842
7800,8.726448,0.055529,0.252155
7801,8.682009,0.098116,0.246348
7802,8.708268,0.027765,0.258008
7803,8.704229,0.076823,0.249252
7804,8.662255,0.095239,0.250734
7805,8.760852,0.108395,0.228317
7806,8.675837,0.142417,0.224755
7807,8.718345,0.125406,0.226536
7808,8.678923,0.120266,0.235552
7809,8.743650,0.081962,0.240236
7810,8.633043,0.158444,0.221426
7811,8.769820,0.000000,0.251290
7812,8.766587,0.036922,0.249111
7813,8.729953,0.000000,0.257576
7814,8.768204,0.018461,0.250201
7815,8.746518,0.046226,0.250633
7816,8.804492,0.055531,0.239450
7817,8.825365,0.027766,0.239251
7818,8.785540,0.046227,0.244281
7819,8.808029,0.000000,0.245171
7820,8.782672,0.081963,0.233884
7821,8.834036,0.136907,0.198336
7822,8.839616,0.094575,0.220749
7823,8.870076,0.149215,0.180531
7824,8.836826,0.115741,0.209543
7825,8.859301,0.090896,0.218829
7826,8.822054,0.075053,0.230100
7827,8.797444,0.122651,0.213327
7828,8.851248,0.221356,0.088205
7829,8.851737,0.200472,0.128563
7830,8.865143,0.218970,0.088101
7831,8.851492,0.210914,0.108384
7832,8.878927,0.180997,0.145644
7833,8.821605,0.238826,0.045142
7834,8.833921,0.238939,0.022571
7835,8.836426,0.230091,0.066674
7836,8.795684,0.230713,0.088801
7837,8.823710,0.215592,0.108682
7838,8.808644,0.234769,0.066971
7839,8.690087,0.263862,0.000000
7840,8.743557,0.251468,0.045147
7841,8.777924,0.248212,0.030040
7842,8.769820,0.251290,0.000000
7843,8.716822,0.257665,0.022574
7844,8.760741,0.249840,0.037594
7845,8.773872,0.249751,0.015020
7846,8.729953,0.257576,0.000000
7847,8.799765,0.243519,0.037591
7848,8.769620,0.241091,0.066974
7849,8.808029,0.245171,0.000000
7850,8.812344,0.201042,0.139120
7851,8.819857,0.181976,0.161424
7852,8.832040,0.200757,0.133841
7853,8.816101,0.191509,0.150272
7854,8.862987,0.171749,0.162075
7855,8.764998,0.218596,0.125500
7856,8.780341,0.224655,0.107150
7857,8.788671,0.209819,0.132310
7858,8.733422,0.201616,0.159400
7859,8.776640,0.191796,0.160412
7860,8.749210,0.210106,0.142450
7861,8.741232,0.241008,0.085927
7862,8.742394,0.246238,0.065537
7863,8.753115,0.229802,0.105713
7864,8.713980,0.246131,0.084291
7865,8.702034,0.254996,0.042145
7866,8.727606,0.243570,0.085109
7867,8.723701,0.223873,0.121845
7868,9.263815,0.168173,0.000000
7869,9.295063,0.158794,0.034782
7870,9.325391,0.155302,0.023129
7871,9.327582,0.156595,0.000000
7872,9.279439,0.163484,0.017391
7873,9.310227,0.157048,0.028955
7874,9.326487,0.155949,0.011564
7875,9.295699,0.162384,0.000000
7876,9.324875,0.141689,0.067876
7877,9.355916,0.147346,0.034782
7878,9.340396,0.144517,0.051329
7879,9.340654,0.151324,0.028956
7880,9.309969,0.150241,0.051329
7881,9.385591,0.145835,0.000000
7882,9.356586,0.151215,0.000000
7883,9.370753,0.146590,0.017391
7884,9.263815,0.000000,0.168173
7885,9.242253,0.067768,0.158152
7886,9.206535,0.044751,0.172703
7887,9.201299,0.000000,0.179297
7888,9.253034,0.033884,0.163162
7889,9.224394,0.056259,0.165427
7890,9.203917,0.022375,0.176000
7891,9.232557,0.000000,0.173735
7892,9.216092,0.125366,0.124452
7893,9.177175,0.067777,0.170593
7894,9.196633,0.096571,0.147522
7895,9.191855,0.056264,0.171648
7896,9.229172,0.096567,0.141302
7897,9.133436,0.000000,0.191140
7898,9.167367,0.000000,0.185218
7899,9.155305,0.033888,0.180867
7900,9.064166,0.142562,0.144468
7901,9.101268,0.076919,0.181044
7902,9.140068,0.095630,0.164173
7903,9.140153,0.134060,0.134557
7904,9.082717,0.109740,0.162756
7905,9.120668,0.086274,0.172609
7906,9.140110,0.114845,0.149365
7907,9.102159,0.138311,0.139512
7908,9.158621,0.081703,0.167383
7909,9.117352,0.038460,0.186092
7910,9.178122,0.129713,0.129504
7911,9.201299,0.179297,0.000000
7912,9.206498,0.172808,0.044368
7913,9.242211,0.158413,0.067175
7914,9.232557,0.173735,0.000000
7915,9.203898,0.176052,0.022184
7916,9.224355,0.165611,0.055771
7917,9.253013,0.163293,0.033587
7918,9.133436,0.191140,0.000000
7919,9.177131,0.170836,0.067184
7920,9.155283,0.180988,0.033592
7921,9.191814,0.171822,0.055776
7922,9.167367,0.185218,0.000000
7923,9.229151,0.141889,0.095814
7924,9.196611,0.148101,0.095818
7925,9.140088,0.163925,0.096046
7926,9.101351,0.180496,0.078157
7927,9.140120,0.148993,0.115301
7928,9.120719,0.172211,0.087101
7929,9.082758,0.161529,0.111312
7930,9.158609,0.167381,0.081615
7931,9.117393,0.185818,0.039078
7932,8.695530,0.164244,0.205371
7933,8.662107,0.189274,0.189983
7934,8.685684,0.153330,0.215063
7935,8.678819,0.176759,0.197677
7936,8.626178,0.181872,0.204039
7937,8.748162,0.159054,0.198914
7938,8.754507,0.133725,0.213616
7939,8.721846,0.161649,0.202142
7940,8.697765,0.195445,0.174691
7941,8.740792,0.180335,0.179157
7942,8.800882,0.160236,0.187046
7943,8.810369,0.171106,0.174235
7944,8.817459,0.148571,0.192691
7945,8.774522,0.159645,0.192980
7946,9.700277,0.022676,0.078996
7947,9.692676,0.015082,0.082499
7948,9.716826,0.000000,0.078468
7949,9.725069,0.011338,0.074958
7950,9.696476,0.018879,0.080747
7951,9.704751,0.007541,0.080483
7952,9.733344,0.000000,0.074694
7953,9.649570,0.043960,0.082218
7954,9.663855,0.022635,0.087283
7955,9.656713,0.033297,0.084750
7956,9.678265,0.018858,0.084891
7957,9.674923,0.033318,0.080607
7958,9.677010,0.000000,0.087294
7959,9.696918,0.000000,0.082881
7960,9.670432,0.011317,0.087289
7961,9.605260,0.062049,0.081671
7962,9.615962,0.071089,0.070794
7963,9.598557,0.082735,0.062950
7964,9.582866,0.070401,0.080488
7965,9.610611,0.066569,0.076232
7966,9.607260,0.076912,0.066872
7967,9.579515,0.080744,0.071128
7968,9.643691,0.067165,0.066427
7969,9.646631,0.055563,0.074323
7970,9.629826,0.069127,0.068611
7971,9.627415,0.053005,0.081944
7972,9.636148,0.084825,0.045153
7973,9.617353,0.083780,0.054052
7974,9.639920,0.075995,0.055790
7975,9.670151,0.074941,0.047610
7976,9.673084,0.081835,0.032805
7977,9.657149,0.088619,0.023247
7978,9.653150,0.079883,0.046382
7979,9.671617,0.078388,0.040207
7980,9.665116,0.085227,0.028026
7981,9.646649,0.086722,0.034200
7982,9.703988,0.064414,0.049657
7983,9.691454,0.079965,0.026175
7984,9.697721,0.072190,0.037916
7985,9.682269,0.080900,0.029490
7986,9.687070,0.069677,0.048633
7987,9.677010,0.087294,0.000000
7988,9.667079,0.087957,0.011624
7989,9.684232,0.083630,0.013087
7990,9.515798,0.079106,0.091199
7991,9.510467,0.055750,0.108308
7992,9.538135,0.078929,0.085252
7993,9.513132,0.067428,0.099753
7994,9.520178,0.049120,0.109177
7995,9.470996,0.079041,0.102612
7996,9.484709,0.041681,0.119853
7997,9.477853,0.060361,0.111232
7998,9.497588,0.048716,0.114080
7999,9.493397,0.079074,0.096905
8000,9.490282,0.020840,0.122270
8001,9.385591,0.000000,0.145835
8002,9.444885,0.000000,0.134585
8003,9.451990,0.027608,0.130349
8004,9.429661,0.041695,0.131054
8005,9.415238,0.000000,0.140210
8006,9.448437,0.013804,0.132467
8007,9.440826,0.034651,0.130702
8008,9.407626,0.020847,0.138444
8009,9.468349,0.034644,0.125101
8010,9.470369,0.000000,0.129636
8011,9.450329,0.060368,0.116833
8012,8.990526,0.108442,0.186103
8013,8.985162,0.152127,0.153682
8014,8.971714,0.097829,0.194946
8015,8.987844,0.130284,0.169892
8016,8.945639,0.156825,0.158204
8017,9.031793,0.076923,0.193804
8018,9.013035,0.038462,0.204285
8019,9.011160,0.092683,0.189954
8020,9.024664,0.147344,0.149075
8021,9.047980,0.109743,0.169136
8022,9.066200,0.050822,0.196223
8023,9.066302,0.000000,0.202642
8024,9.083734,0.063871,0.188633
8025,9.066251,0.025411,0.199433
8026,9.099869,0.000000,0.196891
8027,9.048996,0.063873,0.195014
8028,9.030290,0.000000,0.208704
8029,9.066302,0.202642,0.000000
8030,9.066275,0.196001,0.051623
8031,9.099869,0.196891,0.000000
8032,9.066288,0.199322,0.025811
8033,9.083813,0.188249,0.064890
8034,9.031880,0.193292,0.078161
8035,9.013079,0.204028,0.039081
8036,9.049077,0.194646,0.064892
8037,9.030290,0.208704,0.000000
8038,9.048023,0.167927,0.111315
8039,8.990586,0.185323,0.109746
8040,8.987874,0.168725,0.131714
8041,8.971770,0.194383,0.098871
8042,9.011233,0.189307,0.093954
8043,9.404106,0.139678,0.027572
8044,9.434807,0.135291,0.018352
8045,9.444885,0.134585,0.000000
8046,9.394848,0.142757,0.013786
8047,9.419456,0.137485,0.022962
8048,9.439846,0.134938,0.009176
8049,9.415238,0.140210,0.000000
8050,9.421579,0.128114,0.054080
8051,9.459217,0.128930,0.027579
8052,9.440398,0.128522,0.040830
8053,9.447012,0.132111,0.022965
8054,9.412842,0.133896,0.040826
8055,9.470369,0.129636,0.000000
8056,9.477535,0.126808,0.013790
8057,7.531341,0.391342,0.175694
8058,7.553220,0.409071,0.119413
8059,7.483789,0.399713,0.171813
8060,7.542280,0.400206,0.147553
8061,7.534634,0.415732,0.102494
8062,7.582341,0.408434,0.106703
8063,7.578852,0.382687,0.179447
8064,7.752471,0.383366,0.113120
8065,7.729842,0.366745,0.166379
8066,7.783691,0.383569,0.094613
8067,7.741156,0.375056,0.139749
8068,7.781542,0.362838,0.157848
8069,7.732159,0.388732,0.103563
8070,7.678103,0.370389,0.174790
8071,7.501704,0.369245,0.225699
8072,7.470441,0.367332,0.236119
8073,7.516522,0.380293,0.200696
8074,7.517803,0.357623,0.239266
8075,6.998988,0.488533,0.083158
8076,7.057078,0.485395,0.055353
8077,7.064112,0.487652,0.000000
8078,6.975648,0.494797,0.041579
8079,7.028033,0.486964,0.069255
8080,7.060595,0.486524,0.027677
8081,7.008209,0.494357,0.000000
8082,7.043962,0.461952,0.163937
8083,7.109169,0.475018,0.083161
8084,7.076565,0.468485,0.123549
8085,7.083123,0.480207,0.069257
8086,7.021475,0.475243,0.123547
8087,7.172679,0.474388,0.000000
8088,7.118395,0.481020,0.000000
8089,7.140924,0.474703,0.041580
8090,7.197203,0.448462,0.145421
8091,7.146118,0.453000,0.151765
8092,7.130609,0.424786,0.222621
8093,7.206613,0.413584,0.211021
8094,7.171661,0.450731,0.148593
8095,7.138364,0.438893,0.187193
8096,7.173316,0.401745,0.249621
8097,7.127644,0.464009,0.117463
8098,7.184941,0.461425,0.072711
8099,7.087286,0.443369,0.193279
8100,6.938129,0.483489,0.138160
8101,6.911615,0.488549,0.131380
8102,6.968558,0.486011,0.110659
8103,6.929349,0.460922,0.203513
8104,6.871870,0.459073,0.222711
8105,6.933739,0.472205,0.170836
8106,6.986656,0.461437,0.183725
8107,6.953528,0.435535,0.247463
8108,6.930586,0.426419,0.267086
8109,6.941439,0.448229,0.225488
8110,7.023071,0.424335,0.250200
8111,7.011565,0.397941,0.288846
8112,6.988300,0.429935,0.248831
8113,7.033517,0.443144,0.207068
8114,7.087466,0.409516,0.259477
8115,7.109038,0.417151,0.241049
8116,7.097791,0.392558,0.280958
8117,7.055269,0.416925,0.254839
8118,7.432008,0.073269,0.435701
8119,7.387343,0.113556,0.432914
8120,7.409239,0.036635,0.441643
8121,7.409675,0.093412,0.434307
8122,7.365115,0.105481,0.437761
8123,7.386871,0.140605,0.424000
8124,7.453980,0.108879,0.423629
8125,7.510322,0.229153,0.365786
8126,7.544593,0.185462,0.384877
8127,7.518399,0.248315,0.350906
8128,7.527457,0.207307,0.375331
8129,7.578551,0.204743,0.369042
8130,7.484764,0.230402,0.368905
8131,7.510272,0.164975,0.398217
8132,7.491651,0.000000,0.434071
8133,7.486098,0.048772,0.432080
8134,7.439060,0.000000,0.440828
8135,7.488874,0.024386,0.433075
8136,7.459053,0.061021,0.433890
8137,7.535635,0.073271,0.422102
8138,7.564689,0.036636,0.421425
8139,7.510866,0.061022,0.427091
8140,7.542697,0.000000,0.427410
8141,7.505793,0.108880,0.416830
8142,7.562194,0.126147,0.405816
8143,7.553394,0.155805,0.395346
8144,7.583744,0.121365,0.404296
8145,7.548915,0.099709,0.413959
8146,9.727815,0.071344,0.026179
8147,9.737621,0.055045,0.049052
8148,9.738838,0.071132,0.013090
8149,9.732718,0.063194,0.037616
8150,9.746034,0.052215,0.049218
8151,9.728619,0.035727,0.066855
8152,9.716304,0.050071,0.058256
8153,9.733120,0.045386,0.057953
8154,9.715902,0.067879,0.037918
8155,9.739240,0.017863,0.068888
8156,9.702272,0.038527,0.072080
8157,9.677193,0.055391,0.067400
8158,9.701274,0.030602,0.075538
8159,9.689732,0.046959,0.069740
8160,9.663382,0.049676,0.074809
8161,9.715446,0.037127,0.069468
8162,9.690591,0.059903,0.058528
8163,9.716826,0.078468,0.000000
8164,9.711123,0.077851,0.017362
8165,9.733344,0.074694,0.000000
8166,9.713975,0.078159,0.008681
8167,9.719469,0.074597,0.021771
8168,9.701288,0.078908,0.021768
8169,9.696918,0.082881,0.000000
8170,9.663840,0.066458,0.060897
8171,9.670516,0.060925,0.064148
8172,9.653765,0.066811,0.063662
8173,9.666995,0.070699,0.054253
8174,9.266977,0.098056,0.135907
8175,9.303324,0.098230,0.127570
8176,9.296030,0.111867,0.117621
8177,9.241534,0.111711,0.130179
8178,9.285150,0.098143,0.131738
8179,9.299677,0.105049,0.122595
8180,9.256061,0.118617,0.121036
8181,9.316965,0.067824,0.143320
8182,9.346698,0.083742,0.128127
8183,9.331831,0.075783,0.135723
8184,9.325011,0.090986,0.127849
8185,9.291971,0.082940,0.139613
8186,9.375873,0.098003,0.110404
8187,9.335952,0.104935,0.114012
8188,9.361286,0.090873,0.119266
8189,9.382469,0.052320,0.136781
8190,9.360649,0.057700,0.139014
8191,9.351950,0.034739,0.148111
8192,9.384030,0.026160,0.141308
8193,9.371559,0.055010,0.137897
8194,9.356299,0.046219,0.143563
8195,9.368770,0.017369,0.146973
8196,9.353673,0.070721,0.133570
8197,9.379171,0.075162,0.123592
8198,9.334457,0.051281,0.145715
8199,9.267179,0.067907,0.153217
8200,9.254716,0.067838,0.155684
8201,9.267078,0.082982,0.144562
8202,9.291094,0.034735,0.159541
8203,9.277455,0.017368,0.163857
8204,9.279137,0.051321,0.156379
8205,9.304029,0.051280,0.151430
8206,9.327582,0.000000,0.156595
8207,9.322745,0.023102,0.155797
8208,9.295699,0.000000,0.162384
8209,9.325163,0.011551,0.156196
8210,9.306919,0.028919,0.157669
8211,9.337347,0.028920,0.151954
8212,9.356586,0.000000,0.151215
8213,9.423466,0.088628,0.106635
8214,9.423477,0.104332,0.091321
8215,9.399371,0.115823,0.084258
8216,9.399669,0.093315,0.108520
8217,9.423472,0.096480,0.098978
8218,9.411424,0.110078,0.087790
8219,9.387622,0.106913,0.097331
8220,9.447108,0.106981,0.080925
8221,9.459052,0.093011,0.091768
8222,9.435293,0.105656,0.086123
8223,9.447231,0.083835,0.104623
8224,9.410475,0.121968,0.069169
8225,9.434344,0.117547,0.067503
8226,9.412231,0.062316,0.126289
8227,9.397350,0.057318,0.131535
8228,9.417848,0.075472,0.116462
8229,9.420946,0.052005,0.128671
8230,9.270903,0.135416,0.097528
8231,9.269793,0.152858,0.067557
8232,9.243497,0.130391,0.110990
8233,9.270348,0.144137,0.082543
8234,9.256002,0.155635,0.067366
8235,9.282428,0.155826,0.051170
8236,9.297889,0.138553,0.082702
8237,9.377894,0.141346,0.041474
8238,9.373250,0.135010,0.061028
8239,9.391000,0.140512,0.034523
8240,9.375572,0.138178,0.051251
8241,9.397415,0.131562,0.057554
8242,9.366905,0.144346,0.038128
8243,9.349063,0.138350,0.064452
8244,9.306054,0.123549,0.102458
8245,9.301042,0.117708,0.110039
8246,9.288479,0.129483,0.099993
8247,9.350913,0.122183,0.090882
8248,9.363393,0.110093,0.100643
8249,9.328484,0.122866,0.096670
8250,9.337894,0.131936,0.079379
8251,9.374643,0.125018,0.078984
8252,9.373946,0.130014,0.070006
8253,9.387007,0.120421,0.081621
8254,9.362778,0.123600,0.084933
8255,9.464456,0.118296,0.055869
8256,9.455782,0.112638,0.068397
8257,9.461836,0.123613,0.041724
8258,9.485888,0.113105,0.056986
8259,9.478442,0.096073,0.079799
8260,9.475172,0.115701,0.056427
8261,9.490871,0.118896,0.028493
8262,9.511026,0.102302,0.065897
8263,9.520472,0.106101,0.054373
8264,9.513412,0.090704,0.078548
8265,9.498457,0.107704,0.061442
8266,7.235808,0.462956,0.058273
8267,7.286134,0.458659,0.038816
8268,7.281179,0.460897,0.000000
8269,7.204243,0.468672,0.029137
8270,7.260971,0.460808,0.048545
8271,7.283656,0.459778,0.019408
8272,7.226929,0.467643,0.000000
8273,7.298002,0.444068,0.115616
8274,7.342695,0.449427,0.058271
8275,7.320348,0.446748,0.086944
8276,7.314414,0.454043,0.048543
8277,7.266905,0.453512,0.086945
8278,7.333824,0.454241,0.000000
8279,7.364582,0.448506,0.029136
8280,7.374304,0.438889,0.095743
8281,7.367256,0.427094,0.142113
8282,7.393362,0.437456,0.090655
8283,7.370780,0.432992,0.118928
8284,7.401746,0.417590,0.155023
8285,7.358500,0.444158,0.077007
8286,7.332629,0.435581,0.128864
8287,7.230837,0.447276,0.135248
8288,7.214020,0.447869,0.140334
8289,7.233322,0.455116,0.096761
8290,7.258025,0.418697,0.199613
8291,7.237024,0.398701,0.238117
8292,7.244431,0.432987,0.167430
8293,7.278013,0.431383,0.157615
8294,7.317462,0.415394,0.189054
8295,7.342359,0.421244,0.165583
8296,7.322008,0.405852,0.206491
8297,7.287744,0.417045,0.194333
8298,8.662690,0.262588,0.054483
8299,8.687218,0.247799,0.092090
8300,8.676388,0.263225,0.027242
8301,8.674954,0.255194,0.073287
8302,8.700599,0.246965,0.088191
8303,8.633636,0.250897,0.106812
8304,8.683893,0.228259,0.134288
8305,8.658764,0.239578,0.120550
8306,8.685555,0.238029,0.113189
8307,8.648163,0.256743,0.080648
8308,8.708657,0.214937,0.146844
8309,8.653287,0.213327,0.164789
8310,8.613198,0.219147,0.167400
8311,8.657697,0.201300,0.177386
8312,8.633242,0.216237,0.166095
8313,8.601724,0.196809,0.192748
8314,8.668590,0.220793,0.149538
8315,8.623417,0.235022,0.137106
8316,8.609565,0.276365,0.000000
8317,8.617369,0.272792,0.036241
8318,8.649826,0.270113,0.000000
8319,8.613467,0.274579,0.018120
8320,8.640029,0.267690,0.045362
8321,8.580741,0.275504,0.054488
8322,8.553435,0.282317,0.027244
8323,8.599055,0.274148,0.045364
8324,8.567847,0.282748,0.000000
8325,8.607188,0.263201,0.080650
8326,8.586157,0.254877,0.115923
8327,8.599678,0.237012,0.141662
8328,8.574273,0.255760,0.118346
8329,8.583449,0.265190,0.085205
8330,6.207465,0.547075,0.202359
8331,6.203201,0.518456,0.268083
8332,6.265590,0.542770,0.196780
8333,6.205333,0.532766,0.235221
8334,6.231074,0.507840,0.281371
8335,6.172860,0.511496,0.286640
8336,6.149315,0.551146,0.207852
8337,5.959880,0.539262,0.279041
8338,5.983285,0.567886,0.208852
8339,5.926909,0.533820,0.295063
8340,5.971582,0.553574,0.243946
8341,5.929319,0.573966,0.206512
8342,5.980808,0.526860,0.297010
8343,6.037225,0.561552,0.211098
8344,6.224598,0.565262,0.136770
8345,6.257762,0.565894,0.116881
8346,6.216031,0.556168,0.169564
8347,6.199690,0.570849,0.122631
8348,5.994182,0.587333,0.141140
8349,5.988733,0.577609,0.174996
8350,5.969744,0.593510,0.122352
8351,6.023775,0.587922,0.124809
8352,9.602000,0.043168,0.093817
8353,9.590073,0.042824,0.096664
8354,9.603630,0.052608,0.087744
8355,9.621690,0.022642,0.096542
8356,9.607139,0.011321,0.100876
8357,9.611845,0.032905,0.095180
8358,9.635630,0.033301,0.089380
8359,9.640252,0.015044,0.094032
8360,9.638670,0.000000,0.095553
8361,9.652054,0.018839,0.090658
8362,9.639461,0.007522,0.094793
8363,9.657840,0.000000,0.091424
8364,9.630971,0.018843,0.095287
8365,9.615629,0.000000,0.100382
8366,7.789765,0.328747,0.218199
8367,7.832858,0.308489,0.236464
8368,7.811504,0.343839,0.183758
8369,7.811312,0.318618,0.227331
8370,7.854825,0.313128,0.224877
8371,7.744421,0.287087,0.279443
8372,7.831368,0.275701,0.274242
8373,7.787895,0.281394,0.276842
8374,7.832113,0.292095,0.255353
8375,7.767093,0.307917,0.248821
8376,7.874828,0.269939,0.271572
8377,7.735402,0.344651,0.206775
8378,7.732622,0.355698,0.186577
8379,7.762584,0.336699,0.212487
8380,7.686063,0.334676,0.234210
8381,7.656213,0.354354,0.208705
8382,7.710733,0.339664,0.220493
8383,7.715242,0.310882,0.256826
8384,7.678834,0.257296,0.318476
8385,7.662470,0.302638,0.278951
8386,7.645672,0.240660,0.335842
8387,7.670652,0.279967,0.298714
8388,7.641966,0.306538,0.278699
8389,7.674266,0.318657,0.256580
8390,7.711628,0.272191,0.298960
8391,5.289879,0.528519,0.391559
8392,5.349341,0.505581,0.415605
8393,5.283785,0.556744,0.346980
8394,5.319610,0.517050,0.403582
8395,5.361297,0.516295,0.400677
8396,5.301195,0.458547,0.470681
8397,5.384530,0.457340,0.465213
8398,5.342862,0.457944,0.467947
8399,5.366935,0.481461,0.440409
8400,5.295537,0.493533,0.431120
8401,5.426179,0.456524,0.462263
8402,5.355050,0.405042,0.513673
8403,5.298409,0.377146,0.538377
8404,5.368443,0.390606,0.523473
8405,5.326729,0.391094,0.526025
8406,5.296570,0.331577,0.565292
8407,5.369790,0.431191,0.489443
8408,5.299802,0.417847,0.504529
8409,5.243249,0.498915,0.432095
8410,5.228696,0.508457,0.421621
8411,5.266564,0.513717,0.411827
8412,5.225393,0.445513,0.488057
8413,5.187460,0.438518,0.496221
8414,5.234321,0.472214,0.460076
8415,5.263294,0.452030,0.479369
8416,5.248797,0.396014,0.527729
8417,5.273603,0.386580,0.533053
8418,5.235590,0.378980,0.540437
8419,5.237095,0.420764,0.507893
8420,5.465370,0.642627,0.078216
8421,5.517913,0.627670,0.143201
8422,5.489425,0.643313,0.039108
8423,5.491641,0.635149,0.110708
8424,5.543248,0.626485,0.140076
8425,5.416622,0.631816,0.155292
8426,5.519274,0.607628,0.212485
8427,5.467948,0.619722,0.183889
8428,5.518593,0.617649,0.177843
8429,5.440996,0.637221,0.116754
8430,5.570362,0.592376,0.239976
8431,5.438862,0.601859,0.243295
8432,5.347432,0.612883,0.230538
8433,5.444258,0.592024,0.264395
8434,5.393147,0.607371,0.236917
8435,5.312562,0.598926,0.266469
8436,5.479068,0.604744,0.227890
8437,5.382027,0.622349,0.192915
8438,5.386524,0.652374,0.000000
8439,5.396339,0.649713,0.052131
8440,5.450002,0.648186,0.000000
8441,5.391432,0.651043,0.026066
8442,5.430855,0.646170,0.065174
8443,5.337623,0.650619,0.078242
8444,5.297839,0.655026,0.039121
8445,5.366981,0.650166,0.065187
8446,5.322290,0.655903,0.000000
8447,5.377123,0.641217,0.116767
8448,5.318151,0.637755,0.155570
8449,5.332792,0.625319,0.193054
8450,5.293475,0.639074,0.155591
8451,5.327887,0.644187,0.116906
8452,9.638670,0.095553,0.000000
8453,9.635783,0.094929,0.015453
8454,9.657840,0.091424,0.000000
8455,9.637226,0.095241,0.007727
8456,9.646466,0.091774,0.019350
8457,9.614977,0.097847,0.023247
8458,9.603782,0.101528,0.011624
8459,9.625380,0.096388,0.019350
8460,9.615629,0.100382,0.000000
8461,9.625563,0.091336,0.034200
8462,9.597535,0.094552,0.043787
8463,9.598046,0.088643,0.053369
8464,9.587855,0.096951,0.043312
8465,9.606256,0.096199,0.033517
8466,7.823009,0.235025,0.311271
8467,7.827188,0.255363,0.292756
8468,7.842421,0.220689,0.318015
8469,7.775039,0.218554,0.330901
8470,7.759730,0.252820,0.305172
8471,7.799024,0.226790,0.321086
8472,7.789111,0.179231,0.348994
8473,7.720866,0.220384,0.338419
8474,7.714497,0.201651,0.350222
8475,7.699850,0.238840,0.328448
8476,7.747953,0.219469,0.334660
8477,5.086236,0.661434,-0.075383
8478,5.129361,0.654908,-0.113280
8479,5.043118,0.659204,-0.094593
8480,5.107798,0.658171,-0.094332
8481,5.064680,0.641689,-0.168036
8482,5.107404,0.663000,-0.037691
8483,5.193708,0.657170,-0.056640
8484,5.294731,0.592207,-0.286008
8485,5.222384,0.553145,-0.361946
8486,5.148387,0.582980,-0.317792
8487,5.147459,0.612958,-0.255494
8488,5.258557,0.572676,-0.323977
8489,5.185385,0.568063,-0.339869
8490,5.147923,0.597969,-0.286643
8491,5.221095,0.602583,-0.270751
8492,5.149528,0.504385,-0.431522
8493,5.074993,0.576625,-0.333064
8494,5.112260,0.540505,-0.382293
8495,5.111690,0.579803,-0.325428
8496,5.185956,0.528765,-0.396734
8497,5.073730,0.620714,-0.239142
8498,5.037496,0.602548,-0.277927
8499,5.277232,0.642055,-0.146704
8500,5.184786,0.639747,-0.173126
8501,5.267644,0.650744,-0.073352
8502,5.231009,0.640901,-0.159915
8503,5.157073,0.647327,-0.143203
8504,5.166122,0.626353,-0.214310
8505,5.285982,0.617131,-0.216356
8506,6.435207,0.544667,-0.128576
8507,6.375961,0.559403,-0.085464
8508,6.464620,0.548933,-0.064288
8509,6.405584,0.552035,-0.107020
8510,6.376194,0.562591,-0.042732
8511,6.373260,0.507748,-0.250468
8512,6.316393,0.557526,-0.128578
8513,6.344826,0.532637,-0.189523
8514,6.346177,0.558464,-0.107021
8515,6.404234,0.526207,-0.189522
8516,6.286410,0.567879,-0.064289
8517,6.102257,0.535861,-0.255555
8518,6.237787,0.522055,-0.253133
8519,6.223539,0.485434,-0.320222
8520,6.148299,0.470961,-0.353759
8521,6.170022,0.528958,-0.254344
8522,6.230663,0.503745,-0.286677
8523,6.185919,0.478198,-0.336990
8524,6.125278,0.503411,-0.304657
8525,6.283751,0.456080,-0.350746
8526,6.328506,0.481914,-0.300607
8527,6.253645,0.470757,-0.335484
8528,6.305523,0.514902,-0.251800
8529,6.192029,0.387367,-0.437893
8530,6.170164,0.429164,-0.395826
8531,6.237890,0.421723,-0.394320
8532,5.092713,0.310237,-0.588830
8533,5.138948,0.263882,-0.609686
8534,5.046357,0.311517,-0.588802
8535,5.115830,0.287060,-0.599258
8536,5.069474,0.243336,-0.619078
8537,5.138965,0.351436,-0.563642
8538,5.069483,0.373942,-0.549761
8539,5.115839,0.330836,-0.576236
8540,5.277691,0.302400,-0.584970
8541,5.208319,0.283141,-0.597328
8542,5.208328,0.326918,-0.574306
8543,5.086236,0.075383,-0.661434
8544,5.128573,0.000000,-0.664566
8545,5.043118,0.094593,-0.659204
8546,5.107404,0.037691,-0.663000
8547,5.064287,0.000000,-0.665616
8548,5.129361,0.113280,-0.654908
8549,5.064680,0.168036,-0.641689
8550,5.107798,0.094332,-0.658171
8551,5.258055,0.000000,-0.659432
8552,5.193314,0.000000,-0.661999
8553,5.193708,0.056640,-0.657170
8554,6.952307,0.000000,-0.501062
8555,6.840633,0.000000,-0.514196
8556,6.832577,0.082787,-0.508504
8557,6.885100,0.124600,-0.493609
8558,6.896470,0.000000,-0.507629
8559,6.836605,0.041393,-0.511350
8560,6.858839,0.103693,-0.501056
8561,6.918704,0.062300,-0.497336
8562,6.726337,0.000000,-0.527361
8563,6.772121,0.124594,-0.507137
8564,6.749229,0.062297,-0.517249
8565,6.802349,0.103691,-0.507820
8566,6.783485,0.000000,-0.520778
8567,6.814391,0.241909,-0.457223
8568,6.849746,0.183254,-0.475416
8569,6.793256,0.183251,-0.482180
8570,5.513479,0.000000,-0.643999
8571,5.568583,0.136952,-0.625300
8572,5.634522,0.091076,-0.628506
8573,5.640383,0.000000,-0.634543
8574,5.541031,0.068476,-0.634649
8575,5.601552,0.114014,-0.626903
8576,5.637452,0.045538,-0.631525
8577,5.576931,0.000000,-0.639271
8578,5.621451,0.267467,-0.577123
8579,5.694674,0.136958,-0.615270
8580,5.658063,0.202212,-0.596196
8581,5.664598,0.114017,-0.621888
8582,5.595017,0.202209,-0.601212
8583,5.765485,0.000000,-0.624359
8584,5.702934,0.000000,-0.629451
8585,5.730079,0.068479,-0.619814
8586,6.833480,0.451336,-0.248135
8587,6.826403,0.361519,-0.367834
8588,6.755065,0.371700,-0.369310
8589,6.723443,0.424898,-0.312817
8590,6.829941,0.406427,-0.307985
8591,6.790734,0.366609,-0.368572
8592,6.739254,0.398299,-0.341063
8593,6.778461,0.438117,-0.280476
8594,6.714178,0.320810,-0.420211
8595,6.764284,0.281359,-0.438717
8596,6.734622,0.346255,-0.394761
8597,6.820397,0.301714,-0.412529
8598,6.612396,0.391326,-0.372236
8599,6.667919,0.408112,-0.342526
8600,6.663287,0.356068,-0.396224
8601,5.677751,0.618808,-0.126901
8602,5.623204,0.630313,-0.084419
8603,5.721618,0.621583,-0.063451
8604,5.650478,0.624561,-0.105660
8605,5.631793,0.632428,-0.042209
8606,5.587972,0.588251,-0.248694
8607,5.551661,0.628685,-0.126872
8608,5.569816,0.608468,-0.187783
8609,5.587432,0.629499,-0.105645
8610,5.632862,0.603529,-0.187797
8611,5.532570,0.636342,-0.063436
8612,8.438327,0.292591,-0.076479
8613,8.393353,0.286622,-0.115763
8614,8.440137,0.297207,-0.038240
8615,8.415840,0.289607,-0.096121
8616,8.373796,0.300739,-0.057881
8617,8.479203,0.272720,-0.115761
8618,8.502666,0.280925,-0.057881
8619,8.458765,0.282656,-0.096120
8620,8.425656,0.215877,-0.214320
8621,8.409505,0.251250,-0.165041
8622,8.452430,0.244299,-0.165041
8623,9.839629,0.042294,-0.024901
8624,9.818912,0.038407,-0.038407
8625,9.843128,0.044783,-0.012450
8626,9.829270,0.040350,-0.031654
8627,9.817010,0.046841,-0.019203
8628,9.850264,0.026585,-0.037935
8629,9.864561,0.032644,-0.018968
8630,9.844946,0.034439,-0.031418
8631,9.815107,0.000000,-0.055274
8632,9.817010,0.019203,-0.046841
8633,9.832686,0.013292,-0.046605
8634,9.902023,0.026993,-0.017627
8635,9.881749,0.026802,-0.026802
8636,9.905825,0.028524,-0.008814
8637,9.891886,0.026898,-0.022215
8638,9.880303,0.032752,-0.013401
8639,9.912076,0.013809,-0.025892
8640,9.926523,0.017216,-0.012946
8641,9.907050,0.020401,-0.021759
8642,9.878858,0.000000,-0.038702
8643,9.880303,0.013401,-0.032752
8644,9.895467,0.006905,-0.032297
8645,6.180786,0.571142,-0.131002
8646,6.125393,0.584973,-0.087093
8647,6.218607,0.574687,-0.065501
8648,6.153090,0.578058,-0.109048
8649,6.130949,0.587617,-0.043547
8650,6.059367,0.583339,-0.130991
8651,6.080812,0.559600,-0.193273
8652,6.092380,0.584156,-0.109042
8653,6.141521,0.553501,-0.193278
8654,6.036511,0.592726,-0.065496
8655,6.245321,0.553177,-0.172595
8656,6.280857,0.555351,-0.150586
8657,6.213054,0.562160,-0.151799
8658,6.241554,0.537616,-0.212864
8659,6.884332,0.350149,-0.369413
8660,6.907643,0.286710,-0.417304
8661,6.855368,0.355834,-0.368623
8662,6.895988,0.318430,-0.393358
8663,6.861017,0.264309,-0.437264
8664,6.917650,0.395241,-0.314485
8665,6.875565,0.423289,-0.281310
8666,6.900991,0.372695,-0.341949
8667,7.000060,0.327492,-0.371547
8668,6.953852,0.307101,-0.394425
8669,6.958855,0.361367,-0.343016
8670,6.051278,0.397089,-0.447701
8671,6.069273,0.451231,-0.390444
8672,6.121653,0.392228,-0.442797
8673,6.060276,0.424160,-0.419073
8674,6.108786,0.461096,-0.372102
8675,5.910464,0.406366,-0.457009
8676,6.007486,0.480640,-0.363501
8677,5.958975,0.443503,-0.410255
8678,6.038379,0.465936,-0.376972
8679,5.980871,0.401727,-0.452355
8680,6.054871,0.508250,-0.309528
8681,8.479263,0.116774,-0.272277
8682,8.438381,0.077134,-0.292411
8683,8.393415,0.116776,-0.286200
8684,8.452460,0.166326,-0.243299
8685,8.458822,0.096954,-0.282344
8686,8.415898,0.096955,-0.289306
8687,8.409536,0.166327,-0.250260
8688,8.526129,0.000000,-0.289130
8689,8.441947,0.000000,-0.301822
8690,8.484038,0.000000,-0.295476
8691,8.440164,0.038567,-0.297116
8692,8.502696,0.058387,-0.280704
8693,8.354239,0.000000,-0.314856
8694,8.373827,0.058388,-0.300528
8695,8.398093,0.000000,-0.308339
8696,5.179136,0.179004,-0.638353
8697,5.268799,0.155612,-0.640393
8698,5.154248,0.146142,-0.646631
8699,5.223967,0.167308,-0.639373
8700,5.263427,0.077806,-0.649913
8701,5.159042,0.221443,-0.624020
8702,5.273245,0.229006,-0.612681
8703,9.860214,0.016658,-0.040423
8704,9.846627,0.000000,-0.047273
8705,9.855239,0.021621,-0.039179
8706,9.853421,0.008329,-0.043848
8707,9.830867,0.000000,-0.051274
8708,9.870981,0.021730,-0.033612
8709,9.862743,0.000000,-0.042988
8710,9.942700,0.014195,-0.014195
8711,9.921910,0.008687,-0.024982
8712,9.941835,0.017408,-0.007097
8713,9.932305,0.011441,-0.019588
8714,9.916993,0.011248,-0.025437
8715,9.940970,0.000000,-0.020622
8716,9.909626,0.000000,-0.030055
8717,9.925298,0.000000,-0.025338
8718,9.915768,0.004343,-0.027518
8719,9.941835,0.007097,-0.017408
8720,9.894242,0.000000,-0.034379
8721,9.971530,0.000000,-0.010565
8722,9.962016,0.009763,-0.009763
8723,9.985765,0.000000,-0.005283
8724,9.966773,0.004882,-0.010164
8725,9.966773,0.010164,-0.004882
8726,9.952358,0.011979,-0.011979
8727,9.956250,0.000000,-0.015594
8728,6.894759,0.491551,-0.128062
8729,6.839040,0.507367,-0.085065
8730,6.923533,0.496306,-0.064031
8731,6.866900,0.499459,-0.106563
8732,6.839837,0.510782,-0.042532
8733,6.781783,0.505127,-0.128062
8734,6.807631,0.478232,-0.188098
8735,6.810412,0.506247,-0.106563
8736,6.864119,0.471444,-0.188099
8737,6.754060,0.516244,-0.064031
8738,8.952903,0.203789,-0.087215
8739,8.917999,0.220000,-0.057631
8740,8.973590,0.209277,-0.043607
8741,8.935451,0.211894,-0.072423
8742,8.920193,0.223330,-0.028815
8743,8.906117,0.162726,-0.161523
8744,8.878985,0.216909,-0.087216
8745,8.892551,0.189817,-0.124369
8746,8.898492,0.218454,-0.072423
8747,8.929510,0.183257,-0.124369
8748,8.862611,0.227981,-0.043608
8749,8.846238,0.000000,-0.239053
8750,8.879038,0.087998,-0.216583
8751,8.918045,0.058136,-0.219859
8752,8.922387,0.000000,-0.226660
8753,8.862638,0.043999,-0.227818
8754,8.898541,0.073067,-0.218221
8755,8.920216,0.029068,-0.223259
8756,8.884312,0.000000,-0.232856
8757,8.952953,0.087996,-0.203443
8758,8.929535,0.125361,-0.182483
8759,8.935499,0.073066,-0.211651
8760,8.892578,0.125362,-0.189053
8761,8.994277,0.000000,-0.214765
8762,8.958332,0.000000,-0.220713
8763,8.973615,0.043998,-0.209104
8764,7.286449,0.455706,-0.064769
8765,7.236010,0.456339,-0.097410
8766,7.283814,0.458302,-0.032384
8767,7.261230,0.456022,-0.081089
8768,7.204344,0.465363,-0.048705
8769,7.342887,0.442608,-0.097406
8770,7.364678,0.445097,-0.048703
8771,7.314668,0.449157,-0.081088
8772,7.296713,0.417640,-0.190426
8773,7.266361,0.436989,-0.143918
8774,7.319800,0.430124,-0.143916
8775,7.593743,0.000000,-0.420748
8776,7.611462,0.093993,-0.407797
8777,7.672806,0.062492,-0.405553
8778,7.695759,0.000000,-0.407231
8779,7.602603,0.046996,-0.414273
8780,7.642134,0.078242,-0.406675
8781,7.684282,0.031246,-0.406392
8782,7.644751,0.000000,-0.413990
8783,7.626364,0.183200,-0.374032
8784,7.711847,0.094006,-0.394098
8785,7.669106,0.138603,-0.384065
8786,7.692327,0.078249,-0.399825
8787,7.618913,0.138596,-0.390915
8788,7.794550,0.000000,-0.393947
8789,7.745154,0.000000,-0.400589
8790,7.753199,0.047003,-0.394022
8791,7.731275,0.399721,-0.047316
8792,7.699362,0.400542,-0.071124
8793,7.713517,0.403476,-0.023658
8794,7.715318,0.400131,-0.059220
8795,7.646553,0.410645,-0.035562
8796,7.799735,0.386820,-0.071107
8797,7.797142,0.390383,-0.035554
8798,7.765505,0.393270,-0.059211
8799,7.803183,0.367087,-0.139908
8800,7.751273,0.383814,-0.105516
8801,7.801459,0.376954,-0.105508
8802,8.516578,0.255934,-0.137633
8803,8.508027,0.217353,-0.194724
8804,8.497890,0.264327,-0.126697
8805,8.512303,0.236643,-0.166178
8806,8.466842,0.216615,-0.204522
8807,8.560594,0.268493,-0.092359
8808,8.543362,0.278811,-0.046180
8809,8.538586,0.262213,-0.114996
8810,8.590249,0.218096,-0.174471
8811,8.549138,0.217724,-0.184597
8812,8.575422,0.243294,-0.133415
8813,8.642501,0.255119,-0.092362
8814,8.604266,0.270397,-0.061173
8815,8.666294,0.259490,-0.046181
8816,8.623383,0.262758,-0.076767
8817,8.606915,0.273381,-0.030586
8818,8.582430,0.269445,-0.076766
8819,8.616375,0.236607,-0.133416
8820,8.517368,0.156618,-0.244603
8821,8.512698,0.186985,-0.219663
8822,8.498316,0.136696,-0.258440
8823,8.562388,0.120769,-0.256642
8824,8.576319,0.169433,-0.215556
8825,8.539878,0.138693,-0.250622
8826,8.544258,0.060385,-0.272886
8827,7.439830,0.315164,-0.307996
8828,7.328135,0.296970,-0.344600
8829,7.318824,0.344265,-0.299152
8830,7.369115,0.371887,-0.252951
8831,7.383983,0.306067,-0.326298
8832,7.323480,0.320618,-0.321876
8833,7.343970,0.358076,-0.276052
8834,7.404473,0.343525,-0.280474
8835,7.216024,0.276621,-0.378705
8836,7.258221,0.358596,-0.293979
8837,7.237122,0.317608,-0.336342
8838,7.288523,0.351431,-0.296566
8839,7.272079,0.286796,-0.361653
8840,7.332914,0.394763,-0.221689
8841,7.277467,0.388118,-0.242202
8842,7.439178,0.246538,-0.365419
8843,7.364807,0.256731,-0.369949
8844,7.439504,0.280851,-0.336708
8845,7.401992,0.251635,-0.367684
8846,7.346471,0.276851,-0.357275
8847,7.436237,0.167932,-0.408085
8848,7.326553,0.223929,-0.396311
8849,7.381395,0.195930,-0.402198
8850,7.345680,0.240330,-0.383130
8851,7.437707,0.207235,-0.386752
8852,7.271288,0.250275,-0.387508
8853,5.792778,0.435586,-0.443896
8854,5.804990,0.480802,-0.392851
8855,5.869953,0.488806,-0.373574
8856,5.851621,0.420976,-0.450452
8857,5.798884,0.458194,-0.418373
8858,5.837471,0.484804,-0.383212
8859,5.890209,0.447586,-0.415291
8860,5.674916,0.463373,-0.429323
8861,5.751734,0.513795,-0.356675
8862,5.713325,0.488584,-0.392999
8863,5.778362,0.497299,-0.374763
8864,5.733847,0.449480,-0.436609
8865,5.827486,0.553781,-0.276765
8866,5.848719,0.521294,-0.325170
8867,5.789610,0.533788,-0.316720
8868,5.947690,0.507316,-0.335510
8869,5.964906,0.545155,-0.266324
8870,5.977588,0.493978,-0.349505
8871,5.956298,0.526236,-0.300917
8872,6.033581,0.540508,-0.260939
8873,5.908821,0.498061,-0.354542
8874,5.896196,0.549468,-0.271545
8875,5.728082,0.601556,-0.178948
8876,5.707783,0.571625,-0.263010
8877,5.702917,0.610182,-0.152925
8878,5.717932,0.586590,-0.220979
8879,5.647878,0.579938,-0.255852
8880,5.797912,0.605234,-0.142171
8881,5.781698,0.614796,-0.071085
8882,5.762997,0.603395,-0.160559
8883,5.767635,0.562703,-0.269888
8884,5.812699,0.579508,-0.209468
8885,5.821190,0.103561,-0.610952
8886,5.885543,0.068941,-0.610069
8887,5.890697,0.000000,-0.613442
8888,5.793338,0.051780,-0.617655
8889,5.853367,0.086251,-0.610510
8890,5.888120,0.034471,-0.611755
8891,5.828091,0.000000,-0.618900
8892,5.875353,0.204172,-0.580046
8893,5.945307,0.103564,-0.599686
8894,5.910330,0.153868,-0.589866
8895,5.915425,0.086253,-0.604877
8896,5.848272,0.153866,-0.595499
8897,6.013654,0.000000,-0.602113
8898,5.952176,0.000000,-0.607777
8899,5.979481,0.051782,-0.600899
8900,6.142518,0.305197,-0.504536
8901,6.065382,0.340621,-0.490453
8902,6.167273,0.346282,-0.471214
8903,6.103950,0.322909,-0.497495
8904,6.058330,0.368855,-0.469077
8905,6.091166,0.213345,-0.555218
8906,6.001735,0.314979,-0.514459
8907,6.046450,0.264162,-0.534839
8908,6.033559,0.327800,-0.502456
8909,6.116842,0.259271,-0.529877
8910,5.956099,0.360672,-0.485734
8911,5.755025,0.160040,-0.604534
8912,5.724850,0.148499,-0.609902
8913,5.788108,0.131800,-0.607743
8914,5.748493,0.236232,-0.579594
8915,5.684972,0.251849,-0.578359
8916,5.751759,0.198136,-0.592064
8917,5.811923,0.220202,-0.579820
8918,5.893937,0.311085,-0.528378
8919,5.803169,0.296819,-0.545668
8920,5.766556,0.340793,-0.523001
8921,5.902201,0.358725,-0.492693
8922,5.848553,0.303952,-0.537023
8923,5.784863,0.318806,-0.534335
8924,5.838510,0.373580,-0.490005
8925,5.775831,0.266525,-0.562631
8926,5.884645,0.257628,-0.554212
8927,5.694004,0.304130,-0.550062
8928,5.441419,0.591166,-0.267776
8929,5.450820,0.554907,-0.335174
8930,5.381837,0.533273,-0.376170
8931,5.368075,0.591686,-0.276892
8932,5.446119,0.573036,-0.301475
8933,5.416328,0.544090,-0.355672
8934,5.338284,0.562740,-0.331089
8935,5.528736,0.533472,-0.358733
8936,5.558354,0.560861,-0.303713
8937,5.489778,0.544189,-0.346953
8938,5.514695,0.589708,-0.258235
8939,5.467828,0.459312,-0.455707
8940,5.424832,0.496292,-0.415938
8941,5.498282,0.496392,-0.407220
8942,5.449655,0.285495,-0.582189
8943,5.456239,0.347771,-0.546652
8944,5.545380,0.369268,-0.524749
8945,5.535553,0.276481,-0.579656
8946,5.452947,0.316633,-0.564421
8947,5.500810,0.358519,-0.535701
8948,5.583415,0.318367,-0.550936
8949,5.373254,0.385750,-0.527010
8950,5.325473,0.344075,-0.555990
8951,5.414747,0.366760,-0.536831
8952,5.363673,0.293948,-0.583579
8953,5.506604,0.414290,-0.490228
8954,5.420541,0.422531,-0.491359
8955,9.578147,0.099510,-0.042480
8956,9.551121,0.110184,-0.028061
8957,9.585367,0.102360,-0.021240
8958,9.564634,0.104847,-0.035270
8959,9.549682,0.112222,-0.014030
8960,9.560473,0.079305,-0.078753
8961,9.529888,0.110046,-0.042490
8962,9.545180,0.094676,-0.060622
8963,9.540505,0.110115,-0.035275
8964,9.569310,0.089408,-0.060616
8965,9.512871,0.117366,-0.021245
8966,9.495854,0.000000,-0.124686
8967,9.529918,0.042848,-0.109901
8968,9.551147,0.028292,-0.110120
8969,9.548242,0.000000,-0.114261
8970,9.512886,0.021424,-0.117293
8971,9.540533,0.035570,-0.110010
8972,9.549695,0.014146,-0.112190
8973,9.522048,0.000000,-0.119473
8974,9.578175,0.042837,-0.099350
8975,9.569324,0.061071,-0.089051
8976,9.564661,0.035564,-0.104735
8977,9.545195,0.061077,-0.094327
8978,9.592587,0.000000,-0.105210
8979,9.570415,0.000000,-0.109735
8980,9.585381,0.021419,-0.102280
8981,6.494034,0.000000,-0.553200
8982,6.376427,0.000000,-0.565778
8983,6.358836,0.064568,-0.563990
8984,6.409745,0.097006,-0.553899
8985,6.435230,0.000000,-0.559489
8986,6.367631,0.032284,-0.564884
8987,6.384290,0.080787,-0.558944
8988,6.451889,0.048503,-0.553550
8989,6.256428,0.000000,-0.578232
8990,6.290927,0.096993,-0.566527
8991,6.273677,0.048496,-0.572379
8992,6.324881,0.080781,-0.565258
8993,6.316427,0.000000,-0.572005
8994,6.323715,0.191201,-0.538466
8995,6.366730,0.144103,-0.546182
8996,6.307321,0.144097,-0.552496
8997,6.491896,0.508296,-0.219114
8998,6.532880,0.475738,-0.273952
8999,6.493520,0.454777,-0.314989
9000,6.432578,0.508022,-0.234791
9001,6.512388,0.492017,-0.246533
9002,6.513200,0.465257,-0.294471
9003,6.433390,0.481262,-0.282729
9004,6.610330,0.507135,-0.187021
9005,6.612588,0.458568,-0.285457
9006,6.611459,0.482851,-0.236239
9007,6.572734,0.467153,-0.279704
9008,6.551113,0.507715,-0.203067
9009,6.552958,0.423052,-0.343613
9010,6.612492,0.424947,-0.328846
9011,6.686263,0.456470,-0.273053
9012,6.722086,0.480689,-0.218240
9013,6.704853,0.440684,-0.292935
9014,6.704175,0.468580,-0.245646
9015,6.777783,0.466012,-0.233188
9016,6.649426,0.457519,-0.279255
9017,6.666208,0.493912,-0.202631
9018,6.493700,0.532990,-0.148700
9019,6.464454,0.538828,-0.138638
9020,6.492798,0.520643,-0.183907
9021,6.553113,0.538515,-0.094975
9022,6.523573,0.545858,-0.047488
9023,6.523407,0.535752,-0.121838
9024,6.581721,0.522825,-0.140998
9025,6.369734,0.275205,-0.495164
9026,6.438946,0.249067,-0.500654
9027,6.450346,0.193534,-0.523378
9028,6.346724,0.233203,-0.516815
9029,6.404340,0.262136,-0.497909
9030,6.444646,0.221301,-0.512016
9031,6.387031,0.192368,-0.530922
9032,6.414095,0.351538,-0.438100
9033,6.496222,0.276911,-0.478640
9034,6.455159,0.314225,-0.458370
9035,6.467584,0.262989,-0.489647
9036,6.391915,0.313372,-0.466632
9037,6.576924,0.195693,-0.507819
9038,6.513635,0.194614,-0.515599
9039,6.536573,0.236302,-0.493230
9040,6.465734,0.130800,-0.540767
9041,6.536486,0.099507,-0.539555
9042,6.437739,0.113903,-0.547333
9043,6.501110,0.115154,-0.540161
9044,6.515260,0.049753,-0.546378
9045,6.458040,0.162167,-0.532073
9046,6.556705,0.147600,-0.523687
9047,6.668962,0.281270,-0.453740
9048,6.596106,0.300755,-0.450861
9049,6.691570,0.301040,-0.436975
9050,6.632534,0.291012,-0.452300
9051,6.604251,0.346041,-0.411549
9052,6.695781,0.219250,-0.483510
9053,6.755086,0.230580,-0.470367
9054,6.682371,0.250260,-0.468625
9055,6.586515,0.248224,-0.479340
9056,6.636352,0.207472,-0.495665
9057,8.313776,0.313469,-0.068477
9058,8.267621,0.324401,-0.045538
9059,8.334008,0.314162,-0.034239
9060,8.290699,0.318935,-0.057008
9061,8.266936,0.326073,-0.022769
9062,8.271255,0.298364,-0.133967
9063,8.223973,0.326834,-0.068478
9064,8.247614,0.312599,-0.101223
9065,8.245797,0.325617,-0.057008
9066,8.292516,0.305917,-0.101222
9067,8.199276,0.333910,-0.034239
9068,8.132433,0.245679,-0.244971
9069,8.157175,0.316996,-0.132391
9070,8.195224,0.310775,-0.133080
9071,8.202625,0.276468,-0.192573
9072,8.144804,0.281337,-0.188681
9073,8.176199,0.313886,-0.132735
9074,8.198924,0.293622,-0.162827
9075,8.167529,0.261073,-0.218772
9076,8.209599,0.318805,-0.100779
9077,8.165876,0.328991,-0.066195
9078,8.236940,0.287416,-0.163270
9079,8.352652,0.290538,-0.122063
9080,8.373003,0.288580,-0.118913
9081,8.333214,0.302003,-0.095270
9082,8.349198,0.261285,-0.176971
9083,8.387427,0.238581,-0.195646
9084,8.350925,0.275912,-0.149517
9085,8.310227,0.279825,-0.155469
9086,8.202671,0.193087,-0.276100
9087,8.195266,0.133461,-0.310605
9088,8.157201,0.132851,-0.316799
9089,8.167552,0.219383,-0.260536
9090,8.198969,0.163274,-0.293352
9091,8.176234,0.133156,-0.313702
9092,8.144817,0.189265,-0.280885
9093,8.271329,0.134200,-0.298248
9094,8.224014,0.068603,-0.326802
9095,8.247672,0.101401,-0.312525
9096,8.209640,0.101032,-0.318703
9097,8.237000,0.163644,-0.287174
9098,8.174578,0.000000,-0.340986
9099,8.165889,0.066426,-0.328893
9100,8.199296,0.034301,-0.333894
9101,8.266250,0.000000,-0.327746
9102,8.267649,0.045620,-0.324385
9103,8.313817,0.068602,-0.313435
9104,8.310245,0.000000,-0.321301
9105,8.266950,0.022810,-0.326066
9106,8.290733,0.057111,-0.318910
9107,8.334028,0.034301,-0.314146
9108,8.245832,0.057112,-0.325593
9109,8.220414,0.000000,-0.334366
9110,8.292573,0.101401,-0.305842
9111,8.352717,0.122803,-0.290215
9112,8.333267,0.095702,-0.301825
9113,8.373066,0.119789,-0.288208
9114,8.349261,0.177983,-0.260584
9115,8.310295,0.156091,-0.279416
9116,8.350989,0.150393,-0.275400
9117,8.387459,0.196930,-0.237452
9118,6.707159,0.149027,-0.508247
9119,6.739640,0.136811,-0.507692
9120,6.701470,0.184139,-0.495879
9121,6.652643,0.099514,-0.526452
9122,6.689490,0.049757,-0.526906
9123,6.679901,0.124271,-0.517349
9124,6.614784,0.147604,-0.517136
9125,6.600004,0.066220,-0.537555
9126,6.611659,0.000000,-0.540275
9127,6.568245,0.082863,-0.538555
9128,6.605831,0.033110,-0.538915
9129,6.552846,0.000000,-0.546738
9130,6.626323,0.082867,-0.532003
9131,6.668998,0.000000,-0.533818
9132,6.724700,0.506380,-0.148303
9133,6.723393,0.493535,-0.183272
9134,6.753242,0.505754,-0.138182
9135,6.669265,0.525387,-0.094975
9136,6.639797,0.516261,-0.140998
9137,6.696982,0.515884,-0.121639
9138,6.697801,0.526374,-0.047487
9139,6.611068,0.536676,-0.063209
9140,6.611363,0.538476,-0.031605
9141,6.582090,0.537596,-0.079092
9142,6.640166,0.531031,-0.079092
9143,6.016530,0.568036,-0.199209
9144,6.016283,0.586815,-0.134227
9145,6.059393,0.551948,-0.227382
9146,6.016406,0.577425,-0.166718
9147,6.037825,0.585077,-0.132609
9148,5.930138,0.593571,-0.140533
9149,5.972275,0.601895,-0.070738
9150,5.951206,0.597733,-0.105635
9151,5.994279,0.594355,-0.102483
9152,5.973334,0.580803,-0.169871
9153,5.992965,0.602004,-0.035369
9154,5.903438,0.610504,-0.047136
9155,5.848187,0.613204,-0.070751
9156,5.897068,0.611973,-0.023568
9157,5.875813,0.611854,-0.058943
9158,5.806836,0.618781,-0.035375
9159,5.937857,0.606199,-0.058937
9160,5.889162,0.603387,-0.105642
9161,5.953623,0.564391,-0.225614
9162,5.959264,0.554773,-0.245969
9163,5.985076,0.566213,-0.212412
9164,5.879182,0.577570,-0.210067
9165,5.853334,0.565676,-0.243416
9166,5.916402,0.570980,-0.217841
9167,5.904660,0.585570,-0.175300
9168,5.842015,0.601421,-0.141649
9169,5.845101,0.607312,-0.106200
9170,5.819963,0.603327,-0.141910
9171,5.860598,0.589495,-0.175858
9172,7.186291,0.452465,-0.137171
9173,7.130683,0.467113,-0.108869
9174,7.211151,0.454402,-0.117290
9175,7.158487,0.459789,-0.123020
9176,7.151681,0.470750,-0.054435
9177,7.191231,0.427043,-0.201395
9178,7.243972,0.422341,-0.195910
9179,7.188761,0.439754,-0.169283
9180,7.085714,0.436184,-0.212239
9181,7.108199,0.451648,-0.160554
9182,7.138473,0.431614,-0.206817
9183,6.053369,0.108478,-0.588510
9184,6.121292,0.072195,-0.587388
9185,6.136505,0.000000,-0.590262
9186,6.033512,0.054239,-0.595311
9187,6.087330,0.090337,-0.587949
9188,6.128898,0.036098,-0.588825
9189,6.075080,0.000000,-0.596187
9190,6.174782,0.108492,-0.576436
9191,6.132974,0.160918,-0.565827
9192,6.148037,0.090344,-0.581912
9193,6.072267,0.160912,-0.571864
9194,6.196467,0.000000,-0.584247
9195,6.215605,0.054246,-0.577334
9196,7.071564,0.481396,-0.072367
9197,7.020514,0.480825,-0.108875
9198,7.067838,0.484524,-0.036183
9199,7.046039,0.481111,-0.090621
9200,6.986411,0.490943,-0.054437
9201,7.101123,0.474254,-0.090618
9202,7.053114,0.458505,-0.160557
9203,6.973991,0.411268,-0.281607
9204,7.044020,0.389292,-0.297602
9205,6.945820,0.403255,-0.298046
9206,7.009005,0.400280,-0.289604
9207,7.022040,0.358392,-0.334574
9208,6.959635,0.444041,-0.230333
9209,6.896557,0.447688,-0.239234
9210,6.966813,0.427654,-0.255970
9211,7.064867,0.412738,-0.254920
9212,7.022674,0.440112,-0.221286
9213,6.958685,0.474975,-0.157478
9214,6.989600,0.477900,-0.133176
9215,6.926722,0.483263,-0.142770
9216,6.959160,0.459508,-0.193905
9217,7.386469,0.000000,-0.447585
9218,7.412421,0.085566,-0.436023
9219,7.473102,0.056931,-0.432784
9220,7.491651,0.000000,-0.434071
9221,7.399445,0.042783,-0.441804
9222,7.442761,0.071249,-0.434403
9223,7.482376,0.028466,-0.433427
9224,7.439060,0.000000,-0.440828
9225,7.516048,0.085576,-0.422393
9226,7.476142,0.126754,-0.415239
9227,7.494575,0.071254,-0.427588
9228,7.424329,0.126749,-0.422054
9229,7.542697,0.000000,-0.427410
9230,7.554896,0.042788,-0.421570
9231,7.671321,0.391154,-0.124759
9232,7.605294,0.402777,-0.116584
9233,7.685342,0.395848,-0.097942
9234,7.638308,0.396965,-0.120671
9235,7.599519,0.411762,-0.058292
9236,7.708128,0.362025,-0.182918
9237,7.755656,0.364556,-0.161413
9238,7.689725,0.376589,-0.153838
9239,7.612510,0.353207,-0.224025
9240,7.608902,0.377992,-0.170304
9241,7.660319,0.357616,-0.203471
9242,9.801218,0.053417,-0.024354
9243,9.784400,0.060687,-0.016099
9244,9.808163,0.054346,-0.012177
9245,9.792809,0.057052,-0.020227
9246,9.783823,0.061869,-0.008050
9247,9.785155,0.043476,-0.045014
9248,9.768702,0.061902,-0.024362
9249,9.776928,0.052689,-0.034688
9250,9.776551,0.061294,-0.020230
9251,9.793187,0.048446,-0.034684
9252,9.759281,0.066411,-0.012181
9253,9.749861,0.000000,-0.070920
9254,9.754446,0.049385,-0.049385
9255,9.764717,0.047367,-0.048002
9256,9.768603,0.023369,-0.062309
9257,9.752153,0.024693,-0.060153
9258,9.759582,0.048376,-0.048694
9259,9.766660,0.035368,-0.055156
9260,9.759232,0.011684,-0.066615
9261,9.766710,0.054634,-0.036182
9262,9.752153,0.060153,-0.024693
9263,9.776879,0.033422,-0.053661
9264,9.807636,0.040072,-0.040695
9265,9.813274,0.039239,-0.039551
9266,9.804427,0.046744,-0.032525
9267,9.801128,0.023363,-0.053883
9268,9.808118,0.011681,-0.054579
9269,9.804382,0.031717,-0.047289
9270,9.793142,0.033419,-0.049448
9271,9.784317,0.015456,-0.060874
9272,9.783246,0.000000,-0.063051
9273,9.776460,0.019413,-0.061592
9274,9.783781,0.007728,-0.061963
9275,9.766553,0.000000,-0.066986
9276,9.792723,0.019410,-0.057379
9277,9.799177,0.000000,-0.059163
9278,8.077066,0.295485,-0.196474
9279,8.111397,0.322880,-0.135231
9280,8.104750,0.270582,-0.220723
9281,8.094232,0.309183,-0.165853
9282,8.134286,0.319938,-0.133811
9283,8.019874,0.334539,-0.140810
9284,8.098205,0.344528,-0.071810
9285,8.059040,0.339533,-0.106310
9286,8.104801,0.333704,-0.103521
9287,8.048470,0.315012,-0.168642
9288,8.136392,0.342757,-0.035905
9289,8.061728,0.353855,-0.047771
9290,8.004969,0.357923,-0.071799
9291,8.072481,0.353925,-0.023886
9292,8.033349,0.355889,-0.059785
9293,7.996522,0.362639,-0.035900
9294,8.079967,0.349192,-0.059791
9295,8.012422,0.346231,-0.106305
9296,8.025377,0.257376,-0.254659
9297,8.024344,0.287639,-0.220179
9298,8.078905,0.251528,-0.249815
9299,8.024861,0.272508,-0.237419
9300,8.050705,0.291562,-0.208327
9301,7.918288,0.268902,-0.264176
9302,7.969981,0.307094,-0.206108
9303,7.944135,0.287998,-0.235142
9304,7.997163,0.297366,-0.213144
9305,7.971833,0.263139,-0.259417
9306,7.994928,0.320816,-0.173459
9307,7.988075,0.000000,-0.367354
9308,8.007152,0.072658,-0.357439
9309,8.063189,0.048339,-0.353571
9310,8.083233,0.000000,-0.353994
9311,7.997614,0.036329,-0.362397
9312,8.035171,0.060498,-0.355505
9313,8.073211,0.024169,-0.353782
9314,8.035654,0.000000,-0.360674
9315,8.024186,0.142415,-0.333200
9316,8.100387,0.072668,-0.344032
9317,8.062287,0.107541,-0.338616
9318,8.081788,0.060503,-0.348802
9319,8.015669,0.107536,-0.345320
9320,8.128906,0.000000,-0.347490
9321,8.137483,0.036334,-0.342509
9322,8.112853,0.136096,-0.322291
9323,8.079209,0.197601,-0.294366
9324,8.135027,0.134474,-0.319545
9325,8.096031,0.166849,-0.308329
9326,8.105821,0.221640,-0.269669
9327,8.106620,0.104382,-0.333162
9328,8.051698,0.170008,-0.313783
9329,8.025802,0.222656,-0.285463
9330,8.052505,0.210128,-0.289915
9331,8.025589,0.240016,-0.270061
9332,7.972195,0.209573,-0.304360
9333,7.998191,0.175994,-0.318780
9334,7.998998,0.216114,-0.294912
9335,7.945242,0.239237,-0.284268
9336,7.386399,0.415087,-0.167655
9337,7.405147,0.388148,-0.218075
9338,7.341556,0.416363,-0.179040
9339,7.395773,0.401617,-0.192865
9340,7.387131,0.380017,-0.235513
9341,7.475952,0.411557,-0.144488
9342,7.459207,0.372023,-0.231651
9343,7.467579,0.391790,-0.188070
9344,7.432177,0.380085,-0.224863
9345,7.431176,0.413322,-0.156072
9346,7.449519,0.343594,-0.269824
9347,5.074857,0.453709,-0.487235
9348,5.142707,0.406806,-0.524835
9349,5.037429,0.425079,-0.511558
9350,5.108782,0.430258,-0.506035
9351,5.140836,0.379121,-0.544238
9352,5.214142,0.411146,-0.517999
9353,5.181835,0.457766,-0.474760
9354,5.178425,0.408976,-0.521417
9355,5.112192,0.479047,-0.459378
9356,5.245916,0.356773,-0.551484
9357,5.049923,0.483153,-0.458652
9358,5.024961,0.477233,-0.464982
9359,5.062390,0.468431,-0.472943
9360,5.074784,0.520936,-0.414626
9361,5.037392,0.528409,-0.405537
9362,5.062353,0.502045,-0.436639
9363,5.112156,0.512661,-0.423074
9364,5.049965,0.563817,-0.355035
9365,5.024983,0.576295,-0.333915
9366,5.062374,0.542377,-0.384830
9367,5.062479,0.570221,-0.344049
9368,7.893152,0.000000,-0.380493
9369,7.872861,0.050638,-0.379956
9370,7.911661,0.076117,-0.370264
9371,7.940614,0.000000,-0.373923
9372,7.883007,0.025319,-0.380224
9373,7.892261,0.063378,-0.375110
9374,7.949868,0.038059,-0.368809
9375,7.814912,0.076107,-0.383772
9376,7.804731,0.038054,-0.388859
9377,7.843886,0.063373,-0.381864
9378,7.843851,0.000000,-0.387220
9379,7.833243,0.149318,-0.358931
9380,7.872452,0.112717,-0.364597
9381,7.824077,0.112712,-0.371351
9382,7.926129,0.190143,-0.324323
9383,7.876792,0.213291,-0.317767
9384,7.949162,0.199858,-0.314341
9385,7.901460,0.201717,-0.321045
9386,7.897540,0.241096,-0.290972
9387,7.928728,0.145904,-0.346154
9388,7.976457,0.144159,-0.339677
9389,7.927428,0.168023,-0.335238
9390,7.855017,0.181304,-0.338349
9391,7.880985,0.147611,-0.352542
9392,7.949402,0.098967,-0.359425
9393,7.930531,0.087542,-0.364844
9394,7.978277,0.085813,-0.358432
9395,7.939065,0.122435,-0.352790
9396,7.896491,0.373378,-0.071122
9397,7.862715,0.381778,-0.047330
9398,7.942283,0.370366,-0.035561
9399,7.879603,0.377578,-0.059226
9400,7.877934,0.381136,-0.023665
9401,7.831225,0.384299,-0.059219
9402,7.849837,0.370233,-0.105515
9403,7.937873,0.362120,-0.095092
9404,7.971421,0.360021,-0.083446
9405,7.917182,0.367749,-0.083107
9406,7.911553,0.350973,-0.140423
9407,7.965713,0.342756,-0.140617
9408,7.924713,0.356547,-0.117758
9409,7.857368,0.359030,-0.140166
9410,7.861833,0.324760,-0.206352
9411,7.914682,0.329199,-0.184835
9412,7.890060,0.296831,-0.235264
9413,7.888258,0.326980,-0.195594
9414,7.942332,0.318146,-0.195472
9415,7.913117,0.340086,-0.162629
9416,7.832508,0.345924,-0.173130
9417,8.351640,0.223321,-0.222407
9418,8.325516,0.251945,-0.195729
9419,8.388648,0.219599,-0.218363
9420,8.338578,0.237633,-0.209068
9421,8.337357,0.256615,-0.186350
9422,8.277604,0.230673,-0.230402
9423,8.275191,0.268823,-0.185156
9424,8.276397,0.249748,-0.207779
9425,8.300354,0.260384,-0.190443
9426,8.314622,0.226997,-0.226404
9427,8.273223,0.283594,-0.159562
9428,8.227781,0.261955,-0.206041
9429,8.205027,0.238217,-0.237727
9430,8.215203,0.269212,-0.199307
9431,8.216404,0.250086,-0.221884
9432,8.168730,0.241948,-0.241349
9433,8.251486,0.265389,-0.195599
9434,8.241315,0.234445,-0.234064
9435,8.325553,0.196478,-0.251353
9436,8.337407,0.187230,-0.255969
9437,8.338596,0.209900,-0.236880
9438,8.275230,0.185419,-0.268635
9439,8.273280,0.159809,-0.283441
9440,8.300391,0.190948,-0.259994
9441,8.276417,0.208046,-0.249518
9442,8.227811,0.206472,-0.261610
9443,8.216419,0.222344,-0.249669
9444,8.215241,0.199780,-0.268855
9445,8.251520,0.195945,-0.265123
9446,7.101885,0.354510,-0.328000
9447,7.108116,0.302439,-0.375601
9448,7.072952,0.371901,-0.312801
9449,7.105001,0.328475,-0.351801
9450,7.054088,0.314966,-0.373574
9451,7.152568,0.367044,-0.304306
9452,7.119141,0.401614,-0.258273
9453,7.127226,0.360777,-0.316153
9454,7.162070,0.289530,-0.377153
9455,7.184296,0.321832,-0.341506
9456,7.201065,0.387313,-0.267731
9457,7.229643,0.372955,-0.280855
9458,7.196148,0.407178,-0.234563
9459,7.176816,0.377178,-0.286019
9460,6.303096,0.369667,-0.438251
9461,6.310808,0.314613,-0.478430
9462,6.258947,0.294659,-0.497223
9463,6.247563,0.378517,-0.438072
9464,6.306952,0.342140,-0.458340
9465,6.284877,0.304636,-0.487826
9466,6.225488,0.341013,-0.467558
9467,6.340271,0.294909,-0.486797
9468,6.358596,0.360603,-0.438175
9469,6.291331,0.242930,-0.517844
9470,6.535484,0.318223,-0.446910
9471,6.513391,0.372335,-0.406152
9472,6.565795,0.309489,-0.448886
9473,6.524437,0.345279,-0.426531
9474,6.562894,0.381831,-0.389194
9475,6.515853,0.297567,-0.462775
9476,6.463743,0.361937,-0.422126
9477,6.327578,0.423505,-0.382680
9478,6.305664,0.439793,-0.366713
9479,6.315337,0.396586,-0.410465
9480,6.395071,0.439903,-0.352518
9481,6.384166,0.473825,-0.301493
9482,6.361324,0.431704,-0.367599
9483,6.404583,0.395720,-0.395309
9484,6.467589,0.423978,-0.359637
9485,6.490490,0.398157,-0.382894
9486,6.480554,0.439378,-0.337313
9487,6.431330,0.431940,-0.356078
9488,7.621461,0.278446,-0.310438
9489,7.560941,0.291046,-0.309663
9490,7.526477,0.336026,-0.267478
9491,7.616986,0.315827,-0.267232
9492,7.591201,0.284746,-0.310051
9493,7.543709,0.313536,-0.288570
9494,7.569493,0.344616,-0.245751
9495,7.533903,0.252834,-0.346001
9496,7.580133,0.218017,-0.360016
9497,7.547422,0.271940,-0.327832
9498,7.623913,0.230823,-0.342235
9499,7.483153,0.325595,-0.287737
9500,7.486866,0.283999,-0.326999
9501,5.632185,0.533815,-0.344182
9502,5.577621,0.511319,-0.383677
9503,5.610078,0.561033,-0.296438
9504,5.604903,0.522567,-0.363929
9505,5.553179,0.522395,-0.371205
9506,5.571403,0.461643,-0.442803
9507,5.623159,0.462508,-0.436063
9508,5.574512,0.486481,-0.413240
9509,5.653550,0.498594,-0.386752
9510,5.519615,0.460478,-0.449255
9511,5.588815,0.403015,-0.495110
9512,5.649118,0.372413,-0.512833
9513,5.567098,0.386142,-0.509930
9514,5.618967,0.387714,-0.503971
9515,5.635285,0.319940,-0.544978
9516,5.580109,0.432329,-0.468957
9517,5.662017,0.417893,-0.471078
9518,5.697390,0.541469,-0.322039
9519,5.702587,0.556547,-0.292525
9520,5.664787,0.537642,-0.333110
9521,5.724562,0.527632,-0.339357
9522,5.736352,0.384551,-0.494861
9523,5.692735,0.378482,-0.503847
9524,5.751454,0.362672,-0.508931
9525,5.764565,0.410069,-0.469379
9526,5.463584,0.643225,-0.074155
9527,5.395143,0.649996,-0.049428
9528,5.488532,0.643612,-0.037077
9529,5.429364,0.646610,-0.061792
9530,5.390834,0.651185,-0.024714
9531,5.413115,0.633942,-0.147338
9532,5.335841,0.651192,-0.074177
9533,5.374478,0.642567,-0.110758
9534,5.365492,0.650594,-0.061803
9535,5.438350,0.638583,-0.110746
9536,5.296948,0.655312,-0.037089
9537,5.322590,0.639536,-0.146972
9538,5.354167,0.617022,-0.218070
9539,5.299911,0.640796,-0.146838
9540,5.338378,0.628279,-0.182521
9541,5.324449,0.604615,-0.252039
9542,5.329215,0.645364,-0.110575
9543,5.383641,0.625482,-0.182704
9544,5.505468,0.630626,-0.133821
9545,5.528565,0.629656,-0.130347
9546,5.484526,0.636926,-0.103988
9547,5.500727,0.613608,-0.198830
9548,5.544349,0.600930,-0.223762
9549,5.503098,0.622117,-0.166326
9550,5.456921,0.623775,-0.173084
9551,5.432166,0.608076,-0.228580
9552,5.393166,0.612549,-0.223325
9553,5.436792,0.599621,-0.248178
9554,5.466447,0.610842,-0.213705
9555,8.726448,0.252155,-0.055529
9556,8.682009,0.246348,-0.098116
9557,8.708268,0.258008,-0.027765
9558,8.704229,0.249252,-0.076823
9559,8.662255,0.250734,-0.095239
9560,8.760852,0.228317,-0.108395
9561,8.675837,0.224755,-0.142417
9562,8.718345,0.226536,-0.125406
9563,8.678923,0.235552,-0.120266
9564,8.743650,0.240236,-0.081962
9565,8.633043,0.221426,-0.158444
9566,8.766587,0.249111,-0.036922
9567,8.768204,0.250201,-0.018461
9568,8.746518,0.250633,-0.046226
9569,8.804492,0.239450,-0.055531
9570,8.825365,0.239251,-0.027766
9571,8.785540,0.244281,-0.046227
9572,8.782672,0.233884,-0.081963
9573,8.834036,0.198336,-0.136907
9574,8.839616,0.220749,-0.094575
9575,8.870076,0.180531,-0.149215
9576,8.836826,0.209543,-0.115741
9577,8.859301,0.218829,-0.090896
9578,8.822054,0.230100,-0.075053
9579,8.797444,0.213327,-0.122651
9580,8.851248,0.088205,-0.221356
9581,8.851737,0.128563,-0.200472
9582,8.865143,0.088101,-0.218970
9583,8.851492,0.108384,-0.210914
9584,8.878927,0.145644,-0.180997
9585,8.821605,0.045142,-0.238826
9586,8.833921,0.022571,-0.238939
9587,8.836426,0.066674,-0.230091
9588,8.795684,0.088801,-0.230713
9589,8.823710,0.108682,-0.215592
9590,8.808644,0.066971,-0.234769
9591,8.690087,0.000000,-0.263862
9592,8.743557,0.045147,-0.251468
9593,8.777924,0.030040,-0.248212
9594,8.769820,0.000000,-0.251290
9595,8.716822,0.022574,-0.257665
9596,8.760741,0.037594,-0.249840
9597,8.773872,0.015020,-0.249751
9598,8.729953,0.000000,-0.257576
9599,8.799765,0.037591,-0.243519
9600,8.769620,0.066974,-0.241091
9601,8.808029,0.000000,-0.245171
9602,8.812344,0.139120,-0.201042
9603,8.819857,0.161424,-0.181976
9604,8.832040,0.133841,-0.200757
9605,8.816101,0.150272,-0.191509
9606,8.862987,0.162075,-0.171749
9607,8.764998,0.125500,-0.218596
9608,8.780341,0.107150,-0.224655
9609,8.788671,0.132310,-0.209819
9610,8.733422,0.159400,-0.201616
9611,8.776640,0.160412,-0.191796
9612,8.749210,0.142450,-0.210106
9613,8.741232,0.085927,-0.241008
9614,8.742394,0.065537,-0.246238
9615,8.753115,0.105713,-0.229802
9616,8.713980,0.084291,-0.246131
9617,8.702034,0.042145,-0.254996
9618,8.727606,0.085109,-0.243570
9619,8.723701,0.121845,-0.223873
9620,9.263815,0.000000,-0.168173
9621,9.295063,0.034782,-0.158794
9622,9.325391,0.023129,-0.155302
9623,9.327582,0.000000,-0.156595
9624,9.279439,0.017391,-0.163484
9625,9.310227,0.028955,-0.157048
9626,9.326487,0.011564,-0.155949
9627,9.295699,0.000000,-0.162384
9628,9.324875,0.067876,-0.141689
9629,9.355916,0.034782,-0.147346
9630,9.340396,0.051329,-0.144517
9631,9.340654,0.028956,-0.151324
9632,9.309969,0.051329,-0.150241
9633,9.385591,0.000000,-0.145835
9634,9.356586,0.000000,-0.151215
9635,9.370753,0.017391,-0.146590
9636,9.242253,0.158152,-0.067768
9637,9.206535,0.172703,-0.044751
9638,9.253034,0.163162,-0.033884
9639,9.224394,0.165427,-0.056259
9640,9.203917,0.176000,-0.022375
9641,9.216092,0.124452,-0.125366
9642,9.177175,0.170593,-0.067777
9643,9.196633,0.147522,-0.096571
9644,9.191855,0.171648,-0.056264
9645,9.229172,0.141302,-0.096567
9646,9.155305,0.180867,-0.033888
9647,9.064166,0.144468,-0.142562
9648,9.101268,0.181044,-0.076919
9649,9.140068,0.164173,-0.095630
9650,9.140153,0.134557,-0.134060
9651,9.082717,0.162756,-0.109740
9652,9.120668,0.172609,-0.086274
9653,9.140110,0.149365,-0.114845
9654,9.102159,0.139512,-0.138311
9655,9.158621,0.167383,-0.081703
9656,9.117352,0.186092,-0.038460
9657,9.178122,0.129504,-0.129713
9658,9.201299,0.000000,-0.179297
9659,9.206498,0.044368,-0.172808
9660,9.242211,0.067175,-0.158413
9661,9.232557,0.000000,-0.173735
9662,9.203898,0.022184,-0.176052
9663,9.224355,0.055771,-0.165611
9664,9.253013,0.033587,-0.163293
9665,9.133436,0.000000,-0.191140
9666,9.177131,0.067184,-0.170836
9667,9.155283,0.033592,-0.180988
9668,9.191814,0.055776,-0.171822
9669,9.167367,0.000000,-0.185218
9670,9.229151,0.095814,-0.141889
9671,9.196611,0.095818,-0.148101
9672,9.140088,0.096046,-0.163925
9673,9.101351,0.078157,-0.180496
9674,9.140120,0.115301,-0.148993
9675,9.120719,0.087101,-0.172211
9676,9.082758,0.111312,-0.161529
9677,9.158609,0.081615,-0.167381
9678,9.117393,0.039078,-0.185818
9679,8.695530,0.205371,-0.164244
9680,8.662107,0.189983,-0.189274
9681,8.685684,0.215063,-0.153330
9682,8.678819,0.197677,-0.176759
9683,8.626178,0.204039,-0.181872
9684,8.748162,0.198914,-0.159054
9685,8.754507,0.213616,-0.133725
9686,8.721846,0.202142,-0.161649
9687,8.697765,0.174691,-0.195445
9688,8.740792,0.179157,-0.180335
9689,8.800882,0.187046,-0.160236
9690,8.810369,0.174235,-0.171106
9691,8.817459,0.192691,-0.148571
9692,8.774522,0.192980,-0.159645
9693,9.700277,0.078996,-0.022676
9694,9.692676,0.082499,-0.015082
9695,9.725069,0.074958,-0.011338
9696,9.696476,0.080747,-0.018879
9697,9.704751,0.080483,-0.007541
9698,9.649570,0.082218,-0.043960
9699,9.663855,0.087283,-0.022635
9700,9.656713,0.084750,-0.033297
9701,9.678265,0.084891,-0.018858
9702,9.674923,0.080607,-0.033318
9703,9.670432,0.087289,-0.011317
9704,9.605260,0.081671,-0.062049
9705,9.615962,0.070794,-0.071089
9706,9.598557,0.062950,-0.082735
9707,9.582866,0.080488,-0.070401
9708,9.610611,0.076232,-0.066569
9709,9.607260,0.066872,-0.076912
9710,9.579515,0.071128,-0.080744
9711,9.643691,0.066427,-0.067165
9712,9.646631,0.074323,-0.055563
9713,9.629826,0.068611,-0.069127
9714,9.627415,0.081944,-0.053005
9715,9.636148,0.045153,-0.084825
9716,9.617353,0.054052,-0.083780
9717,9.639920,0.055790,-0.075995
9718,9.670151,0.047610,-0.074941
9719,9.673084,0.032805,-0.081835
9720,9.657149,0.023247,-0.088619
9721,9.653150,0.046382,-0.079883
9722,9.671617,0.040207,-0.078388
9723,9.665116,0.028026,-0.085227
9724,9.646649,0.034200,-0.086722
9725,9.703988,0.049657,-0.064414
9726,9.691454,0.026175,-0.079965
9727,9.697721,0.037916,-0.072190
9728,9.682269,0.029490,-0.080900
9729,9.687070,0.048633,-0.069677
9730,9.677010,0.000000,-0.087294
9731,9.667079,0.011624,-0.087957
9732,9.684232,0.013087,-0.083630
9733,9.515798,0.091199,-0.079106
9734,9.510467,0.108308,-0.055750
9735,9.538135,0.085252,-0.078929
9736,9.513132,0.099753,-0.067428
9737,9.520178,0.109177,-0.049120
9738,9.470996,0.102612,-0.079041
9739,9.484709,0.119853,-0.041681
9740,9.477853,0.111232,-0.060361
9741,9.497588,0.114080,-0.048716
9742,9.493397,0.096905,-0.079074
9743,9.490282,0.122270,-0.020840
9744,9.451990,0.130349,-0.027608
9745,9.429661,0.131054,-0.041695
9746,9.448437,0.132467,-0.013804
9747,9.440826,0.130702,-0.034651
9748,9.407626,0.138444,-0.020847
9749,9.468349,0.125101,-0.034644
9750,9.450329,0.116833,-0.060368
9751,8.990526,0.186103,-0.108442
9752,8.985162,0.153682,-0.152127
9753,8.971714,0.194946,-0.097829
9754,8.987844,0.169892,-0.130284
9755,8.945639,0.158204,-0.156825
9756,9.031793,0.193804,-0.076923
9757,9.013035,0.204285,-0.038462
9758,9.011160,0.189954,-0.092683
9759,9.024664,0.149075,-0.147344
9760,9.047980,0.169136,-0.109743
9761,9.066200,0.196223,-0.050822
9762,9.083734,0.188633,-0.063871
9763,9.066251,0.199433,-0.025411
9764,9.048996,0.195014,-0.063873
9765,9.066302,0.000000,-0.202642
9766,9.066275,0.051623,-0.196001
9767,9.099869,0.000000,-0.196891
9768,9.066288,0.025811,-0.199322
9769,9.083813,0.064890,-0.188249
9770,9.031880,0.078161,-0.193292
9771,9.013079,0.039081,-0.204028
9772,9.049077,0.064892,-0.194646
9773,9.030290,0.000000,-0.208704
9774,9.048023,0.111315,-0.167927
9775,8.990586,0.109746,-0.185323
9776,8.987874,0.131714,-0.168725
9777,8.971770,0.098871,-0.194383
9778,9.011233,0.093954,-0.189307
9779,9.404106,0.027572,-0.139678
9780,9.434807,0.018352,-0.135291
9781,9.444885,0.000000,-0.134585
9782,9.394848,0.013786,-0.142757
9783,9.419456,0.022962,-0.137485
9784,9.439846,0.009176,-0.134938
9785,9.415238,0.000000,-0.140210
9786,9.421579,0.054080,-0.128114
9787,9.459217,0.027579,-0.128930
9788,9.440398,0.040830,-0.128522
9789,9.447012,0.022965,-0.132111
9790,9.412842,0.040826,-0.133896
9791,9.470369,0.000000,-0.129636
9792,9.477535,0.013790,-0.126808
9793,7.531341,0.175694,-0.391342
9794,7.553220,0.119413,-0.409071
9795,7.483789,0.171813,-0.399713
9796,7.542280,0.147553,-0.400206
9797,7.534634,0.102494,-0.415732
9798,7.582341,0.106703,-0.408434
9799,7.578852,0.179447,-0.382687
9800,7.752471,0.113120,-0.383366
9801,7.729842,0.166379,-0.366745
9802,7.783691,0.094613,-0.383569
9803,7.741156,0.139749,-0.375056
9804,7.781542,0.157848,-0.362838
9805,7.732159,0.103563,-0.388732
9806,7.678103,0.174790,-0.370389
9807,7.501704,0.225699,-0.369245
9808,7.470441,0.236119,-0.367332
9809,7.516522,0.200696,-0.380293
9810,7.517803,0.239266,-0.357623
9811,6.938129,0.138160,-0.483489
9812,6.998988,0.083158,-0.488533
9813,6.911615,0.131380,-0.488549
9814,6.968558,0.110659,-0.486011
9815,6.975648,0.041579,-0.494797
9816,6.929349,0.203513,-0.460922
9817,6.871870,0.222711,-0.459073
9818,6.933739,0.170836,-0.472205
9819,7.043962,0.163937,-0.461952
9820,7.021475,0.123547,-0.475243
9821,6.986656,0.183725,-0.461437
9822,7.197203,0.145421,-0.448462
9823,7.146118,0.151765,-0.453000
9824,7.130609,0.222621,-0.424786
9825,7.206613,0.211021,-0.413584
9826,7.171661,0.148593,-0.450731
9827,7.138364,0.187193,-0.438893
9828,7.173316,0.249621,-0.401745
9829,7.172679,0.000000,-0.474388
9830,7.109169,0.083161,-0.475018
9831,7.140924,0.041580,-0.474703
9832,7.127644,0.117463,-0.464009
9833,7.184941,0.072711,-0.461425
9834,7.087286,0.193279,-0.443369
9835,7.076565,0.123549,-0.468485
9836,7.057078,0.055353,-0.485395
9837,7.064112,0.000000,-0.487652
9838,7.028033,0.069255,-0.486964
9839,7.060595,0.027677,-0.486524
9840,7.008209,0.000000,-0.494357
9841,7.083123,0.069257,-0.480207
9842,7.118395,0.000000,-0.481020
9843,7.087466,0.259477,-0.409516
9844,7.109038,0.241049,-0.417151
9845,7.097791,0.280958,-0.392558
9846,7.023071,0.250200,-0.424335
9847,7.033517,0.207068,-0.443144
9848,7.055269,0.254839,-0.416925
9849,7.011565,0.288846,-0.397941
9850,6.953528,0.247463,-0.435535
9851,6.930586,0.267086,-0.426419
9852,6.941439,0.225488,-0.448229
9853,6.988300,0.248831,-0.429935
9854,7.432008,0.435701,-0.073269
9855,7.387343,0.432914,-0.113556
9856,7.409239,0.441643,-0.036635
9857,7.409675,0.434307,-0.093412
9858,7.365115,0.437761,-0.105481
9859,7.386871,0.424000,-0.140605
9860,7.453980,0.423629,-0.108879
9861,7.510322,0.365786,-0.229153
9862,7.544593,0.384877,-0.185462
9863,7.518399,0.350906,-0.248315
9864,7.527457,0.375331,-0.207307
9865,7.578551,0.369042,-0.204743
9866,7.484764,0.368905,-0.230402
9867,7.510272,0.398217,-0.164975
9868,7.486098,0.432080,-0.048772
9869,7.488874,0.433075,-0.024386
9870,7.459053,0.433890,-0.061021
9871,7.535635,0.422102,-0.073271
9872,7.564689,0.421425,-0.036636
9873,7.510866,0.427091,-0.061022
9874,7.505793,0.416830,-0.108880
9875,7.562194,0.405816,-0.126147
9876,7.553394,0.395346,-0.155805
9877,7.583744,0.404296,-0.121365
9878,7.548915,0.413959,-0.099709
9879,9.727815,0.026179,-0.071344
9880,9.737621,0.049052,-0.055045
9881,9.738838,0.013090,-0.071132
9882,9.732718,0.037616,-0.063194
9883,9.746034,0.049218,-0.052215
9884,9.728619,0.066855,-0.035727
9885,9.716304,0.058256,-0.050071
9886,9.733120,0.057953,-0.045386
9887,9.715902,0.037918,-0.067879
9888,9.739240,0.068888,-0.017863
9889,9.702272,0.072080,-0.038527
9890,9.677193,0.067400,-0.055391
9891,9.701274,0.075538,-0.030602
9892,9.689732,0.069740,-0.046959
9893,9.663382,0.074809,-0.049676
9894,9.715446,0.069468,-0.037127
9895,9.690591,0.058528,-0.059903
9896,9.716826,0.000000,-0.078468
9897,9.711123,0.017362,-0.077851
9898,9.733344,0.000000,-0.074694
9899,9.713975,0.008681,-0.078159
9900,9.719469,0.021771,-0.074597
9901,9.701288,0.021768,-0.078908
9902,9.696918,0.000000,-0.082881
9903,9.663840,0.060897,-0.066458
9904,9.670516,0.064148,-0.060925
9905,9.653765,0.063662,-0.066811
9906,9.666995,0.054253,-0.070699
9907,9.266977,0.135907,-0.098056
9908,9.303324,0.127570,-0.098230
9909,9.296030,0.117621,-0.111867
9910,9.241534,0.130179,-0.111711
9911,9.285150,0.131738,-0.098143
9912,9.299677,0.122595,-0.105049
9913,9.256061,0.121036,-0.118617
9914,9.316965,0.143320,-0.067824
9915,9.346698,0.128127,-0.083742
9916,9.331831,0.135723,-0.075783
9917,9.325011,0.127849,-0.090986
9918,9.291971,0.139613,-0.082940
9919,9.375873,0.110404,-0.098003
9920,9.335952,0.114012,-0.104935
9921,9.361286,0.119266,-0.090873
9922,9.382469,0.136781,-0.052320
9923,9.360649,0.139014,-0.057700
9924,9.351950,0.148111,-0.034739
9925,9.384030,0.141308,-0.026160
9926,9.371559,0.137897,-0.055010
9927,9.356299,0.143563,-0.046219
9928,9.368770,0.146973,-0.017369
9929,9.353673,0.133570,-0.070721
9930,9.379171,0.123592,-0.075162
9931,9.334457,0.145715,-0.051281
9932,9.267179,0.153217,-0.067907
9933,9.254716,0.155684,-0.067838
9934,9.267078,0.144562,-0.082982
9935,9.291094,0.159541,-0.034735
9936,9.277455,0.163857,-0.017368
9937,9.279137,0.156379,-0.051321
9938,9.304029,0.151430,-0.051280
9939,9.322745,0.155797,-0.023102
9940,9.325163,0.156196,-0.011551
9941,9.306919,0.157669,-0.028919
9942,9.337347,0.151954,-0.028920
9943,9.423466,0.106635,-0.088628
9944,9.423477,0.091321,-0.104332
9945,9.399371,0.084258,-0.115823
9946,9.399669,0.108520,-0.093315
9947,9.423472,0.098978,-0.096480
9948,9.411424,0.087790,-0.110078
9949,9.387622,0.097331,-0.106913
9950,9.447108,0.080925,-0.106981
9951,9.459052,0.091768,-0.093011
9952,9.435293,0.086123,-0.105656
9953,9.447231,0.104623,-0.083835
9954,9.410475,0.069169,-0.121968
9955,9.434344,0.067503,-0.117547
9956,9.412231,0.126289,-0.062316
9957,9.397350,0.131535,-0.057318
9958,9.417848,0.116462,-0.075472
9959,9.420946,0.128671,-0.052005
9960,9.270903,0.097528,-0.135416
9961,9.269793,0.067557,-0.152858
9962,9.243497,0.110990,-0.130391
9963,9.270348,0.082543,-0.144137
9964,9.256002,0.067366,-0.155635
9965,9.282428,0.051170,-0.155826
9966,9.297889,0.082702,-0.138553
9967,9.377894,0.041474,-0.141346
9968,9.373250,0.061028,-0.135010
9969,9.391000,0.034523,-0.140512
9970,9.375572,0.051251,-0.138178
9971,9.397415,0.057554,-0.131562
9972,9.366905,0.038128,-0.144346
9973,9.349063,0.064452,-0.138350
9974,9.306054,0.102458,-0.123549
9975,9.301042,0.110039,-0.117708
9976,9.288479,0.099993,-0.129483
9977,9.350913,0.090882,-0.122183
9978,9.363393,0.100643,-0.110093
9979,9.328484,0.096670,-0.122866
9980,9.337894,0.079379,-0.131936
9981,9.374643,0.078984,-0.125018
9982,9.373946,0.070006,-0.130014
9983,9.387007,0.081621,-0.120421
9984,9.362778,0.084933,-0.123600
9985,9.464456,0.055869,-0.118296
9986,9.455782,0.068397,-0.112638
9987,9.461836,0.041724,-0.123613
9988,9.485888,0.056986,-0.113105
9989,9.478442,0.079799,-0.096073
9990,9.475172,0.056427,-0.115701
9991,9.490871,0.028493,-0.118896
9992,9.511026,0.065897,-0.102302
9993,9.520472,0.054373,-0.106101
9994,9.513412,0.078548,-0.090704
9995,9.498457,0.061442,-0.107704
9996,7.235808,0.058273,-0.462956
9997,7.286134,0.038816,-0.458659
9998,7.281179,0.000000,-0.460897
9999,7.204243,0.029137,-0.468672
10000,7.260971,0.048545,-0.460808
10001,7.283656,0.019408,-0.459778
10002,7.226929,0.000000,-0.467643
10003,7.298002,0.115616,-0.444068
10004,7.342695,0.058271,-0.449427
10005,7.320348,0.086944,-0.446748
10006,7.314414,0.048543,-0.454043
10007,7.266905,0.086945,-0.453512
10008,7.333824,0.000000,-0.454241
10009,7.364582,0.029136,-0.448506
10010,7.374304,0.095743,-0.438889
10011,7.367256,0.142113,-0.427094
10012,7.393362,0.090655,-0.437456
10013,7.370780,0.118928,-0.432992
10014,7.401746,0.155023,-0.417590
10015,7.358500,0.077007,-0.444158
10016,7.332629,0.128864,-0.435581
10017,7.230837,0.135248,-0.447276
10018,7.214020,0.140334,-0.447869
10019,7.233322,0.096761,-0.455116
10020,7.258025,0.199613,-0.418697
10021,7.237024,0.238117,-0.398701
10022,7.244431,0.167430,-0.432987
10023,7.278013,0.157615,-0.431383
10024,7.317462,0.189054,-0.415394
10025,7.342359,0.165583,-0.421244
10026,7.322008,0.206491,-0.405852
10027,7.287744,0.194333,-0.417045
10028,8.662690,0.054483,-0.262588
10029,8.687218,0.092090,-0.247799
10030,8.676388,0.027242,-0.263225
10031,8.674954,0.073287,-0.255194
10032,8.700599,0.088191,-0.246965
10033,8.633636,0.106812,-0.250897
10034,8.683893,0.134288,-0.228259
10035,8.658764,0.120550,-0.239578
10036,8.685555,0.113189,-0.238029
10037,8.648163,0.080648,-0.256743
10038,8.708657,0.146844,-0.214937
10039,8.653287,0.164789,-0.213327
10040,8.613198,0.167400,-0.219147
10041,8.657697,0.177386,-0.201300
10042,8.633242,0.166095,-0.216237
10043,8.601724,0.192748,-0.196809
10044,8.668590,0.149538,-0.220793
10045,8.623417,0.137106,-0.235022
10046,8.609565,0.000000,-0.276365
10047,8.617369,0.036241,-0.272792
10048,8.649826,0.000000,-0.270113
10049,8.613467,0.018120,-0.274579
10050,8.640029,0.045362,-0.267690
10051,8.580741,0.054488,-0.275504
10052,8.553435,0.027244,-0.282317
10053,8.599055,0.045364,-0.274148
10054,8.567847,0.000000,-0.282748
10055,8.607188,0.080650,-0.263201
10056,8.586157,0.115923,-0.254877
10057,8.599678,0.141662,-0.237012
10058,8.574273,0.118346,-0.255760
10059,8.583449,0.085205,-0.265190
10060,6.207465,0.202359,-0.547075
10061,6.203201,0.268083,-0.518456
10062,6.265590,0.196780,-0.542770
10063,6.205333,0.235221,-0.532766
10064,6.231074,0.281371,-0.507840
10065,6.172860,0.286640,-0.511496
10066,6.149315,0.207852,-0.551146
10067,5.959880,0.279041,-0.539262
10068,5.983285,0.208852,-0.567886
10069,5.926909,0.295063,-0.533820
10070,5.971582,0.243946,-0.553574
10071,5.929319,0.206512,-0.573966
10072,5.980808,0.297010,-0.526860
10073,6.037225,0.211098,-0.561552
10074,6.224598,0.136770,-0.565262
10075,6.257762,0.116881,-0.565894
10076,6.216031,0.169564,-0.556168
10077,6.199690,0.122631,-0.570849
10078,5.994182,0.141140,-0.587333
10079,5.988733,0.174996,-0.577609
10080,5.969744,0.122352,-0.593510
10081,6.023775,0.124809,-0.587922
10082,9.602000,0.093817,-0.043168
10083,9.590073,0.096664,-0.042824
10084,9.603630,0.087744,-0.052608
10085,9.621690,0.096542,-0.022642
10086,9.607139,0.100876,-0.011321
10087,9.611845,0.095180,-0.032905
10088,9.635630,0.089380,-0.033301
10089,9.640252,0.094032,-0.015044
10090,9.652054,0.090658,-0.018839
10091,9.639461,0.094793,-0.007522
10092,9.630971,0.095287,-0.018843
10093,7.789765,0.218199,-0.328747
10094,7.832858,0.236464,-0.308489
10095,7.811504,0.183758,-0.343839
10096,7.811312,0.227331,-0.318618
10097,7.854825,0.224877,-0.313128
10098,7.744421,0.279443,-0.287087
10099,7.831368,0.274242,-0.275701
10100,7.787895,0.276842,-0.281394
10101,7.832113,0.255353,-0.292095
10102,7.767093,0.248821,-0.307917
10103,7.874828,0.271572,-0.269939
10104,7.735402,0.206775,-0.344651
10105,7.732622,0.186577,-0.355698
10106,7.762584,0.212487,-0.336699
10107,7.686063,0.234210,-0.334676
10108,7.656213,0.208705,-0.354354
10109,7.710733,0.220493,-0.339664
10110,7.715242,0.256826,-0.310882
10111,7.678834,0.318476,-0.257296
10112,7.662470,0.278951,-0.302638
10113,7.645672,0.335842,-0.240660
10114,7.670652,0.298714,-0.279967
10115,7.641966,0.278699,-0.306538
10116,7.674266,0.256580,-0.318657
10117,7.711628,0.298960,-0.272191
10118,5.298409,0.538377,-0.377146
10119,5.248797,0.527729,-0.396014
10120,5.296570,0.565292,-0.331577
10121,5.273603,0.533053,-0.386580
10122,5.235590,0.540437,-0.378980
10123,5.301195,0.470681,-0.458547
10124,5.225393,0.488057,-0.445513
10125,5.263294,0.479369,-0.452030
10126,5.237095,0.507893,-0.420764
10127,5.299802,0.504529,-0.417847
10128,5.187460,0.496221,-0.438518
10129,5.243249,0.432095,-0.498915
10130,5.289879,0.391559,-0.528519
10131,5.228696,0.421621,-0.508457
10132,5.266564,0.411827,-0.513717
10133,5.283785,0.346980,-0.556744
10134,5.234321,0.460076,-0.472214
10135,5.295537,0.431120,-0.493533
10136,5.355050,0.513673,-0.405042
10137,5.368443,0.523473,-0.390606
10138,5.326729,0.526025,-0.391094
10139,5.384530,0.465213,-0.457340
10140,5.426179,0.462263,-0.456524
10141,5.369790,0.489443,-0.431191
10142,5.342862,0.467947,-0.457944
10143,5.349341,0.415605,-0.505581
10144,5.319610,0.403582,-0.517050
10145,5.361297,0.400677,-0.516295
10146,5.366935,0.440409,-0.481461
10147,5.465370,0.078216,-0.642627
10148,5.517913,0.143201,-0.627670
10149,5.489425,0.039108,-0.643313
10150,5.491641,0.110708,-0.635149
10151,5.543248,0.140076,-0.626485
10152,5.416622,0.155292,-0.631816
10153,5.519274,0.212485,-0.607628
10154,5.467948,0.183889,-0.619722
10155,5.518593,0.177843,-0.617649
10156,5.440996,0.116754,-0.637221
10157,5.570362,0.239976,-0.592376
10158,5.438862,0.243295,-0.601859
10159,5.347432,0.230538,-0.612883
10160,5.444258,0.264395,-0.592024
10161,5.393147,0.236917,-0.607371
10162,5.312562,0.266469,-0.598926
10163,5.479068,0.227890,-0.604744
10164,5.382027,0.192915,-0.622349
10165,5.386524,0.000000,-0.652374
10166,5.396339,0.052131,-0.649713
10167,5.450002,0.000000,-0.648186
10168,5.391432,0.026066,-0.651043
10169,5.430855,0.065174,-0.646170
10170,5.337623,0.078242,-0.650619
10171,5.297839,0.039121,-0.655026
10172,5.366981,0.065187,-0.650166
10173,5.322290,0.000000,-0.655903
10174,5.377123,0.116767,-0.641217
10175,5.318151,0.155570,-0.637755
10176,5.332792,0.193054,-0.625319
10177,5.293475,0.155591,-0.639074
10178,5.327887,0.116906,-0.644187
10179,9.638670,0.000000,-0.095553
10180,9.635783,0.015453,-0.094929
10181,9.657840,0.000000,-0.091424
10182,9.637226,0.007727,-0.095241
10183,9.646466,0.019350,-0.091774
10184,9.614977,0.023247,-0.097847
10185,9.603782,0.011624,-0.101528
10186,9.625380,0.019350,-0.096388
10187,9.615629,0.000000,-0.100382
10188,9.625563,0.034200,-0.091336
10189,9.597535,0.043787,-0.094552
10190,9.598046,0.053369,-0.088643
10191,9.587855,0.043312,-0.096951
10192,9.606256,0.033517,-0.096199
10193,7.823009,0.311271,-0.235025
10194,7.827188,0.292756,-0.255363
10195,7.842421,0.318015,-0.220689
10196,7.775039,0.330901,-0.218554
10197,7.759730,0.305172,-0.252820
10198,7.799024,0.321086,-0.226790
10199,7.789111,0.348994,-0.179231
10200,7.720866,0.338419,-0.220384
10201,7.714497,0.350222,-0.201651
10202,7.699850,0.328448,-0.238840
10203,7.747953,0.334660,-0.219469
10204,5.086236,-0.075383,-0.661434
10205,5.129361,-0.113280,-0.654908
10206,5.043118,-0.094593,-0.659204
10207,5.107798,-0.094332,-0.658171
10208,5.064680,-0.168036,-0.641689
10209,5.107404,-0.037691,-0.663000
10210,5.193708,-0.056640,-0.657170
10211,5.294731,-0.286008,-0.592207
10212,5.222384,-0.361946,-0.553145
10213,5.148387,-0.317792,-0.582980
10214,5.147459,-0.255494,-0.612958
10215,5.258557,-0.323977,-0.572676
10216,5.185385,-0.339869,-0.568063
10217,5.147923,-0.286643,-0.597969
10218,5.221095,-0.270751,-0.602583
10219,5.149528,-0.431522,-0.504385
10220,5.074993,-0.333064,-0.576625
10221,5.112260,-0.382293,-0.540505
10222,5.111690,-0.325428,-0.579803
10223,5.185956,-0.396734,-0.528765
10224,5.073730,-0.239142,-0.620714
10225,5.037496,-0.277927,-0.602548
10226,5.277232,-0.146704,-0.642055
10227,5.184786,-0.173126,-0.639747
10228,5.267644,-0.073352,-0.650744
10229,5.231009,-0.159915,-0.640901
10230,5.157073,-0.143203,-0.647327
10231,5.166122,-0.214310,-0.626353
10232,5.285982,-0.216356,-0.617131
10233,6.435207,-0.128576,-0.544667
10234,6.375961,-0.085464,-0.559403
10235,6.464620,-0.064288,-0.548933
10236,6.405584,-0.107020,-0.552035
10237,6.376194,-0.042732,-0.562591
10238,6.373260,-0.250468,-0.507748
10239,6.316393,-0.128578,-0.557526
10240,6.344826,-0.189523,-0.532637
10241,6.346177,-0.107021,-0.558464
10242,6.404234,-0.189522,-0.526207
10243,6.286410,-0.064289,-0.567879
10244,6.102257,-0.255555,-0.535861
10245,6.237787,-0.253133,-0.522055
10246,6.223539,-0.320222,-0.485434
10247,6.148299,-0.353759,-0.470961
10248,6.170022,-0.254344,-0.528958
10249,6.230663,-0.286677,-0.503745
10250,6.185919,-0.336990,-0.478198
10251,6.125278,-0.304657,-0.503411
10252,6.283751,-0.350746,-0.456080
10253,6.328506,-0.300607,-0.481914
10254,6.253645,-0.335484,-0.470757
10255,6.305523,-0.251800,-0.514902
10256,6.192029,-0.437893,-0.387367
10257,6.170164,-0.395826,-0.429164
10258,6.237890,-0.394320,-0.421723
10259,6.952307,-0.501062,0.000000
10260,6.840633,-0.514196,0.000000
10261,6.832577,-0.508504,-0.082787
10262,6.885100,-0.493609,-0.124600
10263,6.896470,-0.507629,0.000000
10264,6.836605,-0.511350,-0.041393
10265,6.858839,-0.501056,-0.103693
10266,6.918704,-0.497336,-0.062300
10267,6.726337,-0.527361,0.000000
10268,6.772121,-0.507137,-0.124594
10269,6.749229,-0.517249,-0.062297
10270,6.802349,-0.507820,-0.103691
10271,6.783485,-0.520778,0.000000
10272,6.814391,-0.457223,-0.241909
10273,6.849746,-0.475416,-0.183254
10274,6.793256,-0.482180,-0.183251
10275,5.092713,-0.588830,-0.310237
10276,5.138948,-0.609686,-0.263882
10277,5.046357,-0.588802,-0.311517
10278,5.115830,-0.599258,-0.287060
10279,5.069474,-0.619078,-0.243336
10280,5.138965,-0.563642,-0.351436
10281,5.069483,-0.549761,-0.373942
10282,5.115839,-0.576236,-0.330836
10283,5.277691,-0.584970,-0.302400
10284,5.208319,-0.597328,-0.283141
10285,5.208328,-0.574306,-0.326918
10286,6.826403,-0.367834,-0.361519
10287,6.884332,-0.369413,-0.350149
10288,6.907643,-0.417304,-0.286710
10289,6.820397,-0.412529,-0.301714
10290,6.855368,-0.368623,-0.355834
10291,6.895988,-0.393358,-0.318430
10292,6.861017,-0.437264,-0.264309
10293,6.833480,-0.248135,-0.451336
10294,6.917650,-0.314485,-0.395241
10295,6.875565,-0.281310,-0.423289
10296,6.900991,-0.341949,-0.372695
10297,6.829941,-0.307985,-0.406427
10298,7.000060,-0.371547,-0.327492
10299,6.953852,-0.394425,-0.307101
10300,6.958855,-0.343016,-0.361367
10301,5.086236,-0.661434,-0.075383
10302,5.128573,-0.664566,0.000000
10303,5.043118,-0.659204,-0.094593
10304,5.107404,-0.663000,-0.037691
10305,5.064287,-0.665616,0.000000
10306,5.129361,-0.654908,-0.113280
10307,5.064680,-0.641689,-0.168036
10308,5.107798,-0.658171,-0.094332
10309,5.258055,-0.659432,0.000000
10310,5.193314,-0.661999,0.000000
10311,5.193708,-0.657170,-0.056640
10312,6.755065,-0.369310,-0.371700
10313,6.723443,-0.312817,-0.424898
10314,6.790734,-0.368572,-0.366609
10315,6.739254,-0.341063,-0.398299
10316,6.778461,-0.280476,-0.438117
10317,6.714178,-0.420211,-0.320810
10318,6.764284,-0.438717,-0.281359
10319,6.734622,-0.394761,-0.346255
10320,6.612396,-0.372236,-0.391326
10321,6.667919,-0.342526,-0.408112
10322,6.663287,-0.396224,-0.356068
10323,6.894759,-0.128062,-0.491551
10324,6.839040,-0.085065,-0.507367
10325,6.923533,-0.064031,-0.496306
10326,6.866900,-0.106563,-0.499459
10327,6.839837,-0.042532,-0.510782
10328,6.781783,-0.128062,-0.505127
10329,6.807631,-0.188098,-0.478232
10330,6.810412,-0.106563,-0.506247
10331,6.864119,-0.188099,-0.471444
10332,6.754060,-0.064031,-0.516244
10333,5.677751,-0.126901,-0.618808
10334,5.623204,-0.084419,-0.630313
10335,5.721618,-0.063451,-0.621583
10336,5.650478,-0.105660,-0.624561
10337,5.631793,-0.042209,-0.632428
10338,5.587972,-0.248694,-0.588251
10339,5.551661,-0.126872,-0.628685
10340,5.569816,-0.187783,-0.608468
10341,5.587432,-0.105645,-0.629499
10342,5.632862,-0.187797,-0.603529
10343,5.532570,-0.063436,-0.636342
10344,6.051278,-0.447701,-0.397089
10345,6.069273,-0.390444,-0.451231
10346,6.121653,-0.442797,-0.392228
10347,6.060276,-0.419073,-0.424160
10348,6.108786,-0.372102,-0.461096
10349,5.910464,-0.457009,-0.406366
10350,6.007486,-0.363501,-0.480640
10351,5.958975,-0.410255,-0.443503
10352,6.038379,-0.376972,-0.465936
10353,5.980871,-0.452355,-0.401727
10354,6.054871,-0.309528,-0.508250
10355,6.180786,-0.131002,-0.571142
10356,6.125393,-0.087093,-0.584973
10357,6.218607,-0.065501,-0.574687
10358,6.153090,-0.109048,-0.578058
10359,6.130949,-0.043547,-0.587617
10360,6.059367,-0.130991,-0.583339
10361,6.080812,-0.193273,-0.559600
10362,6.092380,-0.109042,-0.584156
10363,6.141521,-0.193278,-0.553501
10364,6.036511,-0.065496,-0.592726
10365,8.438327,-0.076479,-0.292591
10366,8.393353,-0.115763,-0.286622
10367,8.440137,-0.038240,-0.297207
10368,8.415840,-0.096121,-0.289607
10369,8.373796,-0.057881,-0.300739
10370,8.479203,-0.115761,-0.272720
10371,8.502666,-0.057881,-0.280925
10372,8.458765,-0.096120,-0.282656
10373,8.425656,-0.214320,-0.215877
10374,8.409505,-0.165041,-0.251250
10375,8.452430,-0.165041,-0.244299
10376,5.179136,-0.638353,-0.179004
10377,5.268799,-0.640393,-0.155612
10378,5.154248,-0.646631,-0.146142
10379,5.223967,-0.639373,-0.167308
10380,5.263427,-0.649913,-0.077806
10381,5.159042,-0.624020,-0.221443
10382,5.273245,-0.612681,-0.229006
10383,9.839629,-0.024901,-0.042294
10384,9.818912,-0.038407,-0.038407
10385,9.843128,-0.012450,-0.044783
10386,9.829270,-0.031654,-0.040350
10387,9.817010,-0.019203,-0.046841
10388,9.850264,-0.037935,-0.026585
10389,9.864561,-0.018968,-0.032644
10390,9.844946,-0.031418,-0.034439
10391,9.815107,-0.055274,0.000000
10392,9.817010,-0.046841,-0.019203
10393,9.832686,-0.046605,-0.013292
10394,9.902023,-0.017627,-0.026993
10395,9.881749,-0.026802,-0.026802
10396,9.905825,-0.008814,-0.028524
10397,9.891886,-0.022215,-0.026898
10398,9.880303,-0.013401,-0.032752
10399,9.912076,-0.025892,-0.013809
10400,9.926523,-0.012946,-0.017216
10401,9.907050,-0.021759,-0.020401
10402,9.878858,-0.038702,0.000000
10403,9.880303,-0.032752,-0.013401
10404,9.895467,-0.032297,-0.006905
10405,8.479263,-0.272277,-0.116774
10406,8.438381,-0.292411,-0.077134
10407,8.393415,-0.286200,-0.116776
10408,8.452460,-0.243299,-0.166326
10409,8.458822,-0.282344,-0.096954
10410,8.415898,-0.289306,-0.096955
10411,8.409536,-0.250260,-0.166327
10412,8.526129,-0.289130,0.000000
10413,8.441947,-0.301822,0.000000
10414,8.484038,-0.295476,0.000000
10415,8.440164,-0.297116,-0.038567
10416,8.502696,-0.280704,-0.058387
10417,8.354239,-0.314856,0.000000
10418,8.373827,-0.300528,-0.058388
10419,8.398093,-0.308339,0.000000
10420,5.513479,-0.643999,0.000000
10421,5.568583,-0.625300,-0.136952
10422,5.634522,-0.628506,-0.091076
10423,5.640383,-0.634543,0.000000
10424,5.541031,-0.634649,-0.068476
10425,5.601552,-0.626903,-0.114014
10426,5.637452,-0.631525,-0.045538
10427,5.576931,-0.639271,0.000000
10428,5.621451,-0.577123,-0.267467
10429,5.694674,-0.615270,-0.136958
10430,5.658063,-0.596196,-0.202212
10431,5.664598,-0.621888,-0.114017
10432,5.595017,-0.601212,-0.202209
10433,5.765485,-0.624359,0.000000
10434,5.702934,-0.629451,0.000000
10435,5.730079,-0.619814,-0.068479
10436,9.921910,-0.024982,-0.008687
10437,9.909626,-0.030055,0.000000
10438,9.916993,-0.025437,-0.011248
10439,9.915768,-0.027518,-0.004343
10440,9.894242,-0.034379,0.000000
10441,9.942700,-0.014195,-0.014195
10442,9.941835,-0.007097,-0.017408
10443,9.932305,-0.019588,-0.011441
10444,9.940970,-0.020622,0.000000
10445,9.925298,-0.025338,0.000000
10446,9.941835,-0.017408,-0.007097
10447,9.860214,-0.040423,-0.016658
10448,9.846627,-0.047273,0.000000
10449,9.855239,-0.039179,-0.021621
10450,9.853421,-0.043848,-0.008329
10451,9.830867,-0.051274,0.000000
10452,9.870981,-0.033612,-0.021730
10453,9.862743,-0.042988,0.000000
10454,9.971530,-0.010565,0.000000
10455,9.962016,-0.009763,-0.009763
10456,9.985765,-0.005283,0.000000
10457,9.966773,-0.010164,-0.004882
10458,9.966773,-0.004882,-0.010164
10459,9.952358,-0.011979,-0.011979
10460,9.956250,-0.015594,0.000000
10461,6.245321,-0.172595,-0.553177
10462,6.280857,-0.150586,-0.555351
10463,6.213054,-0.151799,-0.562160
10464,6.241554,-0.212864,-0.537616
10465,8.952903,-0.087215,-0.203789
10466,8.917999,-0.057631,-0.220000
10467,8.973590,-0.043607,-0.209277
10468,8.935451,-0.072423,-0.211894
10469,8.920193,-0.028815,-0.223330
10470,8.906117,-0.161523,-0.162726
10471,8.878985,-0.087216,-0.216909
10472,8.892551,-0.124369,-0.189817
10473,8.898492,-0.072423,-0.218454
10474,8.929510,-0.124369,-0.183257
10475,8.862611,-0.043608,-0.227981
10476,8.846238,-0.239053,0.000000
10477,8.879038,-0.216583,-0.087998
10478,8.918045,-0.219859,-0.058136
10479,8.922387,-0.226660,0.000000
10480,8.862638,-0.227818,-0.043999
10481,8.898541,-0.218221,-0.073067
10482,8.920216,-0.223259,-0.029068
10483,8.884312,-0.232856,0.000000
10484,8.952953,-0.203443,-0.087996
10485,8.929535,-0.182483,-0.125361
10486,8.935499,-0.211651,-0.073066
10487,8.892578,-0.189053,-0.125362
10488,8.994277,-0.214765,0.000000
10489,8.958332,-0.220713,0.000000
10490,8.973615,-0.209104,-0.043998
10491,7.286449,-0.064769,-0.455706
10492,7.236010,-0.097410,-0.456339
10493,7.283814,-0.032384,-0.458302
10494,7.261230,-0.081089,-0.456022
10495,7.204344,-0.048705,-0.465363
10496,7.342887,-0.097406,-0.442608
10497,7.364678,-0.048703,-0.445097
10498,7.314668,-0.081088,-0.449157
10499,7.296713,-0.190426,-0.417640
10500,7.266361,-0.143918,-0.436989
10501,7.319800,-0.143916,-0.430124
10502,7.593743,-0.420748,0.000000
10503,7.611462,-0.407797,-0.093993
10504,7.672806,-0.405553,-0.062492
10505,7.695759,-0.407231,0.000000
10506,7.602603,-0.414273,-0.046996
10507,7.642134,-0.406675,-0.078242
10508,7.684282,-0.406392,-0.031246
10509,7.644751,-0.413990,0.000000
10510,7.626364,-0.374032,-0.183200
10511,7.711847,-0.394098,-0.094006
10512,7.669106,-0.384065,-0.138603
10513,7.692327,-0.399825,-0.078249
10514,7.618913,-0.390915,-0.138596
10515,7.794550,-0.393947,0.000000
10516,7.745154,-0.400589,0.000000
10517,7.753199,-0.394022,-0.047003
10518,7.731275,-0.047316,-0.399721
10519,7.699362,-0.071124,-0.400542
10520,7.713517,-0.023658,-0.403476
10521,7.715318,-0.059220,-0.400131
10522,7.646553,-0.035562,-0.410645
10523,7.799735,-0.071107,-0.386820
10524,7.797142,-0.035554,-0.390383
10525,7.765505,-0.059211,-0.393270
10526,7.803183,-0.139908,-0.367087
10527,7.751273,-0.105516,-0.383814
10528,7.801459,-0.105508,-0.376954
10529,8.516578,-0.137633,-0.255934
10530,8.508027,-0.194724,-0.217353
10531,8.497890,-0.126697,-0.264327
10532,8.512303,-0.166178,-0.236643
10533,8.466842,-0.204522,-0.216615
10534,8.560594,-0.092359,-0.268493
10535,8.543362,-0.046180,-0.278811
10536,8.538586,-0.114996,-0.262213
10537,8.590249,-0.174471,-0.218096
10538,8.549138,-0.184597,-0.217724
10539,8.575422,-0.133415,-0.243294
10540,8.642501,-0.092362,-0.255119
10541,8.604266,-0.061173,-0.270397
10542,8.666294,-0.046181,-0.259490
10543,8.623383,-0.076767,-0.262758
10544,8.606915,-0.030586,-0.273381
10545,8.582430,-0.076766,-0.269445
10546,8.616375,-0.133416,-0.236607
10547,8.517368,-0.244603,-0.156618
10548,8.512698,-0.219663,-0.186985
10549,8.498316,-0.258440,-0.136696
10550,8.562388,-0.256642,-0.120769
10551,8.576319,-0.215556,-0.169433
10552,8.539878,-0.250622,-0.138693
10553,8.544258,-0.272886,-0.060385
10554,7.439830,-0.307996,-0.315164
10555,7.439178,-0.365419,-0.246538
10556,7.364807,-0.369949,-0.256731
10557,7.328135,-0.344600,-0.296970
10558,7.439504,-0.336708,-0.280851
10559,7.401992,-0.367684,-0.251635
10560,7.346471,-0.357275,-0.276851
10561,7.383983,-0.326298,-0.306067
10562,7.436237,-0.408085,-0.167932
10563,7.326553,-0.396311,-0.223929
10564,7.381395,-0.402198,-0.195930
10565,7.345680,-0.383130,-0.240330
10566,7.437707,-0.386752,-0.207235
10567,7.216024,-0.378705,-0.276621
10568,7.272079,-0.361653,-0.286796
10569,7.271288,-0.387508,-0.250275
10570,7.318824,-0.299152,-0.344265
10571,7.369115,-0.252951,-0.371887
10572,7.323480,-0.321876,-0.320618
10573,7.343970,-0.276052,-0.358076
10574,7.404473,-0.280474,-0.343525
10575,7.258221,-0.293979,-0.358596
10576,7.237122,-0.336342,-0.317608
10577,7.288523,-0.296566,-0.351431
10578,7.332914,-0.221689,-0.394763
10579,7.277467,-0.242202,-0.388118
10580,5.792778,-0.443896,-0.435586
10581,5.804990,-0.392851,-0.480802
10582,5.869953,-0.373574,-0.488806
10583,5.851621,-0.450452,-0.420976
10584,5.798884,-0.418373,-0.458194
10585,5.837471,-0.383212,-0.484804
10586,5.890209,-0.415291,-0.447586
10587,5.674916,-0.429323,-0.463373
10588,5.751734,-0.356675,-0.513795
10589,5.713325,-0.392999,-0.488584
10590,5.778362,-0.374763,-0.497299
10591,5.733847,-0.436609,-0.449480
10592,5.827486,-0.276765,-0.553781
10593,5.848719,-0.325170,-0.521294
10594,5.789610,-0.316720,-0.533788
10595,5.947690,-0.335510,-0.507316
10596,5.964906,-0.266324,-0.545155
10597,5.977588,-0.349505,-0.493978
10598,5.956298,-0.300917,-0.526236
10599,6.033581,-0.260939,-0.540508
10600,5.908821,-0.354542,-0.498061
10601,5.896196,-0.271545,-0.549468
10602,5.728082,-0.178948,-0.601556
10603,5.707783,-0.263010,-0.571625
10604,5.702917,-0.152925,-0.610182
10605,5.717932,-0.220979,-0.586590
10606,5.647878,-0.255852,-0.579938
10607,5.797912,-0.142171,-0.605234
10608,5.781698,-0.071085,-0.614796
10609,5.762997,-0.160559,-0.603395
10610,5.767635,-0.269888,-0.562703
10611,5.812699,-0.209468,-0.579508
10612,6.142518,-0.504536,-0.305197
10613,6.065382,-0.490453,-0.340621
10614,6.167273,-0.471214,-0.346282
10615,6.103950,-0.497495,-0.322909
10616,6.058330,-0.469077,-0.368855
10617,6.091166,-0.555218,-0.213345
10618,6.001735,-0.514459,-0.314979
10619,6.046450,-0.534839,-0.264162
10620,6.033559,-0.502456,-0.327800
10621,6.116842,-0.529877,-0.259271
10622,5.956099,-0.485734,-0.360672
10623,5.821190,-0.610952,-0.103561
10624,5.885543,-0.610069,-0.068941
10625,5.890697,-0.613442,0.000000
10626,5.793338,-0.617655,-0.051780
10627,5.853367,-0.610510,-0.086251
10628,5.888120,-0.611755,-0.034471
10629,5.828091,-0.618900,0.000000
10630,5.875353,-0.580046,-0.204172
10631,5.945307,-0.599686,-0.103564
10632,5.910330,-0.589866,-0.153868
10633,5.915425,-0.604877,-0.086253
10634,5.848272,-0.595499,-0.153866
10635,6.013654,-0.602113,0.000000
10636,5.952176,-0.607777,0.000000
10637,5.979481,-0.600899,-0.051782
10638,5.893937,-0.528378,-0.311085
10639,5.803169,-0.545668,-0.296819
10640,5.766556,-0.523001,-0.340793
10641,5.902201,-0.492693,-0.358725
10642,5.848553,-0.537023,-0.303952
10643,5.784863,-0.534335,-0.318806
10644,5.838510,-0.490005,-0.373580
10645,5.748493,-0.579594,-0.236232
10646,5.811923,-0.579820,-0.220202
10647,5.775831,-0.562631,-0.266525
10648,5.884645,-0.554212,-0.257628
10649,5.694004,-0.550062,-0.304130
10650,5.684972,-0.578359,-0.251849
10651,5.755025,-0.604534,-0.160040
10652,5.724850,-0.609902,-0.148499
10653,5.788108,-0.607743,-0.131800
10654,5.751759,-0.592064,-0.198136
10655,5.449655,-0.582189,-0.285495
10656,5.456239,-0.546652,-0.347771
10657,5.545380,-0.524749,-0.369268
10658,5.535553,-0.579656,-0.276481
10659,5.452947,-0.564421,-0.316633
10660,5.500810,-0.535701,-0.358519
10661,5.583415,-0.550936,-0.318367
10662,5.373254,-0.527010,-0.385750
10663,5.325473,-0.555990,-0.344075
10664,5.414747,-0.536831,-0.366760
10665,5.363673,-0.583579,-0.293948
10666,5.467828,-0.455707,-0.459312
10667,5.506604,-0.490228,-0.414290
10668,5.420541,-0.491359,-0.422531
10669,5.441419,-0.267776,-0.591166
10670,5.450820,-0.335174,-0.554907
10671,5.381837,-0.376170,-0.533273
10672,5.368075,-0.276892,-0.591686
10673,5.446119,-0.301475,-0.573036
10674,5.416328,-0.355672,-0.544090
10675,5.338284,-0.331089,-0.562740
10676,5.528736,-0.358733,-0.533472
10677,5.558354,-0.303713,-0.560861
10678,5.489778,-0.346953,-0.544189
10679,5.514695,-0.258235,-0.589708
10680,5.424832,-0.415938,-0.496292
10681,5.498282,-0.407220,-0.496392
10682,9.578147,-0.042480,-0.099510
10683,9.551121,-0.028061,-0.110184
10684,9.585367,-0.021240,-0.102360
10685,9.564634,-0.035270,-0.104847
10686,9.549682,-0.014030,-0.112222
10687,9.560473,-0.078753,-0.079305
10688,9.529888,-0.042490,-0.110046
10689,9.545180,-0.060622,-0.094676
10690,9.540505,-0.035275,-0.110115
10691,9.569310,-0.060616,-0.089408
10692,9.512871,-0.021245,-0.117366
10693,9.495854,-0.124686,0.000000
10694,9.529918,-0.109901,-0.042848
10695,9.551147,-0.110120,-0.028292
10696,9.548242,-0.114261,0.000000
10697,9.512886,-0.117293,-0.021424
10698,9.540533,-0.110010,-0.035570
10699,9.549695,-0.112190,-0.014146
10700,9.522048,-0.119473,0.000000
10701,9.578175,-0.099350,-0.042837
10702,9.569324,-0.089051,-0.061071
10703,9.564661,-0.104735,-0.035564
10704,9.545195,-0.094327,-0.061077
10705,9.592587,-0.105210,0.000000
10706,9.570415,-0.109735,0.000000
10707,9.585381,-0.102280,-0.021419
10708,6.494034,-0.553200,0.000000
10709,6.376427,-0.565778,0.000000
10710,6.358836,-0.563990,-0.064568
10711,6.409745,-0.553899,-0.097006
10712,6.435230,-0.559489,0.000000
10713,6.367631,-0.564884,-0.032284
10714,6.384290,-0.558944,-0.080787
10715,6.451889,-0.553550,-0.048503
10716,6.256428,-0.578232,0.000000
10717,6.290927,-0.566527,-0.096993
10718,6.273677,-0.572379,-0.048496
10719,6.324881,-0.565258,-0.080781
10720,6.316427,-0.572005,0.000000
10721,6.323715,-0.538466,-0.191201
10722,6.366730,-0.546182,-0.144103
10723,6.307321,-0.552496,-0.144097
10724,6.491896,-0.219114,-0.508296
10725,6.532880,-0.273952,-0.475738
10726,6.493520,-0.314989,-0.454777
10727,6.432578,-0.234791,-0.508022
10728,6.512388,-0.246533,-0.492017
10729,6.513200,-0.294471,-0.465257
10730,6.433390,-0.282729,-0.481262
10731,6.610330,-0.187021,-0.507135
10732,6.612588,-0.285457,-0.458568
10733,6.611459,-0.236239,-0.482851
10734,6.572734,-0.279704,-0.467153
10735,6.551113,-0.203067,-0.507715
10736,6.552958,-0.343613,-0.423052
10737,6.612492,-0.328846,-0.424947
10738,6.686263,-0.273053,-0.456470
10739,6.722086,-0.218240,-0.480689
10740,6.704853,-0.292935,-0.440684
10741,6.704175,-0.245646,-0.468580
10742,6.777783,-0.233188,-0.466012
10743,6.649426,-0.279255,-0.457519
10744,6.666208,-0.202631,-0.493912
10745,6.493700,-0.148700,-0.532990
10746,6.464454,-0.138638,-0.538828
10747,6.492798,-0.183907,-0.520643
10748,6.553113,-0.094975,-0.538515
10749,6.523573,-0.047488,-0.545858
10750,6.523407,-0.121838,-0.535752
10751,6.581721,-0.140998,-0.522825
10752,6.369734,-0.495164,-0.275205
10753,6.438946,-0.500654,-0.249067
10754,6.450346,-0.523378,-0.193534
10755,6.346724,-0.516815,-0.233203
10756,6.404340,-0.497909,-0.262136
10757,6.444646,-0.512016,-0.221301
10758,6.387031,-0.530922,-0.192368
10759,6.414095,-0.438100,-0.351538
10760,6.496222,-0.478640,-0.276911
10761,6.455159,-0.458370,-0.314225
10762,6.467584,-0.489647,-0.262989
10763,6.391915,-0.466632,-0.313372
10764,6.576924,-0.507819,-0.195693
10765,6.513635,-0.515599,-0.194614
10766,6.536573,-0.493230,-0.236302
10767,6.465734,-0.540767,-0.130800
10768,6.536486,-0.539555,-0.099507
10769,6.437739,-0.547333,-0.113903
10770,6.501110,-0.540161,-0.115154
10771,6.515260,-0.546378,-0.049753
10772,6.458040,-0.532073,-0.162167
10773,6.556705,-0.523687,-0.147600
10774,6.668962,-0.453740,-0.281270
10775,6.596106,-0.450861,-0.300755
10776,6.691570,-0.436975,-0.301040
10777,6.632534,-0.452300,-0.291012
10778,6.604251,-0.411549,-0.346041
10779,6.695781,-0.483510,-0.219250
10780,6.755086,-0.470367,-0.230580
10781,6.682371,-0.468625,-0.250260
10782,6.586515,-0.479340,-0.248224
10783,6.636352,-0.495665,-0.207472
10784,8.313776,-0.068477,-0.313469
10785,8.267621,-0.045538,-0.324401
10786,8.334008,-0.034239,-0.314162
10787,8.290699,-0.057008,-0.318935
10788,8.266936,-0.022769,-0.326073
10789,8.271255,-0.133967,-0.298364
10790,8.223973,-0.068478,-0.326834
10791,8.247614,-0.101223,-0.312599
10792,8.245797,-0.057008,-0.325617
10793,8.292516,-0.101222,-0.305917
10794,8.199276,-0.034239,-0.333910
10795,8.132433,-0.244971,-0.245679
10796,8.157175,-0.132391,-0.316996
10797,8.195224,-0.133080,-0.310775
10798,8.202625,-0.192573,-0.276468
10799,8.144804,-0.188681,-0.281337
10800,8.176199,-0.132735,-0.313886
10801,8.198924,-0.162827,-0.293622
10802,8.167529,-0.218772,-0.261073
10803,8.209599,-0.100779,-0.318805
10804,8.165876,-0.066195,-0.328991
10805,8.236940,-0.163270,-0.287416
10806,8.352652,-0.122063,-0.290538
10807,8.373003,-0.118913,-0.288580
10808,8.333214,-0.095270,-0.302003
10809,8.349198,-0.176971,-0.261285
10810,8.387427,-0.195646,-0.238581
10811,8.350925,-0.149517,-0.275912
10812,8.310227,-0.155469,-0.279825
10813,8.202671,-0.276100,-0.193087
10814,8.195266,-0.310605,-0.133461
10815,8.157201,-0.316799,-0.132851
10816,8.167552,-0.260536,-0.219383
10817,8.198969,-0.293352,-0.163274
10818,8.176234,-0.313702,-0.133156
10819,8.144817,-0.280885,-0.189265
10820,8.271329,-0.298248,-0.134200
10821,8.224014,-0.326802,-0.068603
10822,8.247672,-0.312525,-0.101401
10823,8.209640,-0.318703,-0.101032
10824,8.237000,-0.287174,-0.163644
10825,8.174578,-0.340986,0.000000
10826,8.165889,-0.328893,-0.066426
10827,8.199296,-0.333894,-0.034301
10828,8.266250,-0.327746,0.000000
10829,8.267649,-0.324385,-0.045620
10830,8.313817,-0.313435,-0.068602
10831,8.310245,-0.321301,0.000000
10832,8.266950,-0.326066,-0.022810
10833,8.290733,-0.318910,-0.057111
10834,8.334028,-0.314146,-0.034301
10835,8.245832,-0.325593,-0.057112
10836,8.220414,-0.334366,0.000000
10837,8.292573,-0.305842,-0.101401
10838,8.352717,-0.290215,-0.122803
10839,8.333267,-0.301825,-0.095702
10840,8.373066,-0.288208,-0.119789
10841,8.349261,-0.260584,-0.177983
10842,8.310295,-0.279416,-0.156091
10843,8.350989,-0.275400,-0.150393
10844,8.387459,-0.237452,-0.196930
10845,6.707159,-0.508247,-0.149027
10846,6.739640,-0.507692,-0.136811
10847,6.701470,-0.495879,-0.184139
10848,6.652643,-0.526452,-0.099514
10849,6.689490,-0.526906,-0.049757
10850,6.679901,-0.517349,-0.124271
10851,6.614784,-0.517136,-0.147604
10852,6.600004,-0.537555,-0.066220
10853,6.611659,-0.540275,0.000000
10854,6.568245,-0.538555,-0.082863
10855,6.605831,-0.538915,-0.033110
10856,6.552846,-0.546738,0.000000
10857,6.626323,-0.532003,-0.082867
10858,6.668998,-0.533818,0.000000
10859,6.724700,-0.148303,-0.506380
10860,6.723393,-0.183272,-0.493535
10861,6.753242,-0.138182,-0.505754
10862,6.669265,-0.094975,-0.525387
10863,6.639797,-0.140998,-0.516261
10864,6.696982,-0.121639,-0.515884
10865,6.697801,-0.047487,-0.526374
10866,6.611068,-0.063209,-0.536676
10867,6.611363,-0.031605,-0.538476
10868,6.582090,-0.079092,-0.537596
10869,6.640166,-0.079092,-0.531031
10870,6.016530,-0.199209,-0.568036
10871,6.016283,-0.134227,-0.586815
10872,6.059393,-0.227382,-0.551948
10873,6.016406,-0.166718,-0.577425
10874,6.037825,-0.132609,-0.585077
10875,5.930138,-0.140533,-0.593571
10876,5.972275,-0.070738,-0.601895
10877,5.951206,-0.105635,-0.597733
10878,5.994279,-0.102483,-0.594355
10879,5.973334,-0.169871,-0.580803
10880,5.992965,-0.035369,-0.602004
10881,5.903438,-0.047136,-0.610504
10882,5.848187,-0.070751,-0.613204
10883,5.897068,-0.023568,-0.611973
10884,5.875813,-0.058943,-0.611854
10885,5.806836,-0.035375,-0.618781
10886,5.937857,-0.058937,-0.606199
10887,5.889162,-0.105642,-0.603387
10888,5.953623,-0.225614,-0.564391
10889,5.959264,-0.245969,-0.554773
10890,5.985076,-0.212412,-0.566213
10891,5.879182,-0.210067,-0.577570
10892,5.853334,-0.243416,-0.565676
10893,5.916402,-0.217841,-0.570980
10894,5.904660,-0.175300,-0.585570
10895,5.842015,-0.141649,-0.601421
10896,5.845101,-0.106200,-0.607312
10897,5.819963,-0.141910,-0.603327
10898,5.860598,-0.175858,-0.589495
10899,7.186291,-0.137171,-0.452465
10900,7.130683,-0.108869,-0.467113
10901,7.211151,-0.117290,-0.454402
10902,7.158487,-0.123020,-0.459789
10903,7.151681,-0.054435,-0.470750
10904,7.191231,-0.201395,-0.427043
10905,7.243972,-0.195910,-0.422341
10906,7.188761,-0.169283,-0.439754
10907,7.085714,-0.212239,-0.436184
10908,7.108199,-0.160554,-0.451648
10909,7.138473,-0.206817,-0.431614
10910,6.053369,-0.588510,-0.108478
10911,6.121292,-0.587388,-0.072195
10912,6.136505,-0.590262,0.000000
10913,6.033512,-0.595311,-0.054239
10914,6.087330,-0.587949,-0.090337
10915,6.128898,-0.588825,-0.036098
10916,6.075080,-0.596187,0.000000
10917,6.174782,-0.576436,-0.108492
10918,6.132974,-0.565827,-0.160918
10919,6.148037,-0.581912,-0.090344
10920,6.072267,-0.571864,-0.160912
10921,6.196467,-0.584247,0.000000
10922,6.215605,-0.577334,-0.054246
10923,7.071564,-0.072367,-0.481396
10924,7.020514,-0.108875,-0.480825
10925,7.067838,-0.036183,-0.484524
10926,7.046039,-0.090621,-0.481111
10927,6.986411,-0.054437,-0.490943
10928,7.101123,-0.090618,-0.474254
10929,7.053114,-0.160557,-0.458505
10930,6.973991,-0.281607,-0.411268
10931,7.044020,-0.297602,-0.389292
10932,6.945820,-0.298046,-0.403255
10933,7.009005,-0.289604,-0.400280
10934,7.022040,-0.334574,-0.358392
10935,6.959635,-0.230333,-0.444041
10936,6.896557,-0.239234,-0.447688
10937,6.966813,-0.255970,-0.427654
10938,7.064867,-0.254920,-0.412738
10939,7.022674,-0.221286,-0.440112
10940,6.958685,-0.157478,-0.474975
10941,6.989600,-0.133176,-0.477900
10942,6.926722,-0.142770,-0.483263
10943,6.959160,-0.193905,-0.459508
10944,7.386469,-0.447585,0.000000
10945,7.412421,-0.436023,-0.085566
10946,7.473102,-0.432784,-0.056931
10947,7.491651,-0.434071,0.000000
10948,7.399445,-0.441804,-0.042783
10949,7.442761,-0.434403,-0.071249
10950,7.482376,-0.433427,-0.028466
10951,7.439060,-0.440828,0.000000
10952,7.516048,-0.422393,-0.085576
10953,7.476142,-0.415239,-0.126754
10954,7.494575,-0.427588,-0.071254
10955,7.424329,-0.422054,-0.126749
10956,7.542697,-0.427410,0.000000
10957,7.554896,-0.421570,-0.042788
10958,7.671321,-0.124759,-0.391154
10959,7.605294,-0.116584,-0.402777
10960,7.685342,-0.097942,-0.395848
10961,7.638308,-0.120671,-0.396965
10962,7.599519,-0.058292,-0.411762
10963,7.708128,-0.182918,-0.362025
10964,7.755656,-0.161413,-0.364556
10965,7.689725,-0.153838,-0.376589
10966,7.612510,-0.224025,-0.353207
10967,7.608902,-0.170304,-0.377992
10968,7.660319,-0.203471,-0.357616
10969,9.801218,-0.024354,-0.053417
10970,9.784400,-0.016099,-0.060687
10971,9.808163,-0.012177,-0.054346
10972,9.792809,-0.020227,-0.057052
10973,9.783823,-0.008050,-0.061869
10974,9.785155,-0.045014,-0.043476
10975,9.768702,-0.024362,-0.061902
10976,9.776928,-0.034688,-0.052689
10977,9.776551,-0.020230,-0.061294
10978,9.793187,-0.034684,-0.048446
10979,9.759281,-0.012181,-0.066411
10980,9.749861,-0.070920,0.000000
10981,9.754446,-0.049385,-0.049385
10982,9.764717,-0.048002,-0.047367
10983,9.768603,-0.062309,-0.023369
10984,9.752153,-0.060153,-0.024693
10985,9.759582,-0.048694,-0.048376
10986,9.766660,-0.055156,-0.035368
10987,9.759232,-0.066615,-0.011684
10988,9.766710,-0.036182,-0.054634
10989,9.752153,-0.024693,-0.060153
10990,9.776879,-0.053661,-0.033422
10991,9.807636,-0.040695,-0.040072
10992,9.813274,-0.039551,-0.039239
10993,9.804427,-0.032525,-0.046744
10994,9.801128,-0.053883,-0.023363
10995,9.808118,-0.054579,-0.011681
10996,9.804382,-0.047289,-0.031717
10997,9.793142,-0.049448,-0.033419
10998,9.784317,-0.060874,-0.015456
10999,9.783246,-0.063051,0.000000
11000,9.776460,-0.061592,-0.019413
11001,9.783781,-0.061963,-0.007728
11002,9.766553,-0.066986,0.000000
11003,9.792723,-0.057379,-0.019410
11004,9.799177,-0.059163,0.000000
11005,8.025377,-0.254659,-0.257376
11006,8.024344,-0.220179,-0.287639
11007,8.077066,-0.196474,-0.295485
11008,8.078905,-0.249815,-0.251528
11009,8.024861,-0.237419,-0.272508
11010,8.050705,-0.208327,-0.291562
11011,8.104750,-0.220723,-0.270582
11012,7.918288,-0.264176,-0.268902
11013,7.969981,-0.206108,-0.307094
11014,7.944135,-0.235142,-0.287998
11015,7.997163,-0.213144,-0.297366
11016,7.971833,-0.259417,-0.263139
11017,8.019874,-0.140810,-0.334539
11018,8.048470,-0.168642,-0.315012
11019,7.994928,-0.173459,-0.320816
11020,8.061728,-0.047771,-0.353855
11021,8.004969,-0.071799,-0.357923
11022,8.072481,-0.023886,-0.353925
11023,8.033349,-0.059785,-0.355889
11024,7.996522,-0.035900,-0.362639
11025,8.098205,-0.071810,-0.344528
11026,8.136392,-0.035905,-0.342757
11027,8.079967,-0.059791,-0.349192
11028,8.012422,-0.106305,-0.346231
11029,8.059040,-0.106310,-0.339533
11030,8.111397,-0.135231,-0.322880
11031,8.094232,-0.165853,-0.309183
11032,8.134286,-0.133811,-0.319938
11033,8.104801,-0.103521,-0.333704
11034,7.988075,-0.367354,0.000000
11035,8.007152,-0.357439,-0.072658
11036,8.063189,-0.353571,-0.048339
11037,8.083233,-0.353994,0.000000
11038,7.997614,-0.362397,-0.036329
11039,8.035171,-0.355505,-0.060498
11040,8.073211,-0.353782,-0.024169
11041,8.035654,-0.360674,0.000000
11042,8.024186,-0.333200,-0.142415
11043,8.100387,-0.344032,-0.072668
11044,8.062287,-0.338616,-0.107541
11045,8.081788,-0.348802,-0.060503
11046,8.015669,-0.345320,-0.107536
11047,8.128906,-0.347490,0.000000
11048,8.137483,-0.342509,-0.036334
11049,8.112853,-0.322291,-0.136096
11050,8.079209,-0.294366,-0.197601
11051,8.135027,-0.319545,-0.134474
11052,8.096031,-0.308329,-0.166849
11053,8.105821,-0.269669,-0.221640
11054,8.106620,-0.333162,-0.104382
11055,8.051698,-0.313783,-0.170008
11056,8.025802,-0.285463,-0.222656
11057,8.052505,-0.289915,-0.210128
11058,8.025589,-0.270061,-0.240016
11059,7.972195,-0.304360,-0.209573
11060,7.998191,-0.318780,-0.175994
11061,7.998998,-0.294912,-0.216114
11062,7.945242,-0.284268,-0.239237
11063,7.386399,-0.167655,-0.415087
11064,7.405147,-0.218075,-0.388148
11065,7.341556,-0.179040,-0.416363
11066,7.395773,-0.192865,-0.401617
11067,7.387131,-0.235513,-0.380017
11068,7.475952,-0.144488,-0.411557
11069,7.459207,-0.231651,-0.372023
11070,7.467579,-0.188070,-0.391790
11071,7.432177,-0.224863,-0.380085
11072,7.431176,-0.156072,-0.413322
11073,7.449519,-0.269824,-0.343594
11074,5.074857,-0.487235,-0.453709
11075,5.142707,-0.524835,-0.406806
11076,5.037429,-0.511558,-0.425079
11077,5.108782,-0.506035,-0.430258
11078,5.140836,-0.544238,-0.379121
11079,5.214142,-0.517999,-0.411146
11080,5.181835,-0.474760,-0.457766
11081,5.178425,-0.521417,-0.408976
11082,5.112192,-0.459378,-0.479047
11083,5.245916,-0.551484,-0.356773
11084,5.049923,-0.458652,-0.483153
11085,5.024961,-0.464982,-0.477233
11086,5.062390,-0.472943,-0.468431
11087,5.074784,-0.414626,-0.520936
11088,5.037392,-0.405537,-0.528409
11089,5.062353,-0.436639,-0.502045
11090,5.112156,-0.423074,-0.512661
11091,5.049965,-0.355035,-0.563817
11092,5.024983,-0.333915,-0.576295
11093,5.062374,-0.384830,-0.542377
11094,5.062479,-0.344049,-0.570221
11095,7.893152,-0.380493,0.000000
11096,7.872861,-0.379956,-0.050638
11097,7.911661,-0.370264,-0.076117
11098,7.940614,-0.373923,0.000000
11099,7.883007,-0.380224,-0.025319
11100,7.892261,-0.375110,-0.063378
11101,7.949868,-0.368809,-0.038059
11102,7.814912,-0.383772,-0.076107
11103,7.804731,-0.388859,-0.038054
11104,7.843886,-0.381864,-0.063373
11105,7.843851,-0.387220,0.000000
11106,7.833243,-0.358931,-0.149318
11107,7.872452,-0.364597,-0.112717
11108,7.824077,-0.371351,-0.112712
11109,7.926129,-0.324323,-0.190143
11110,7.876792,-0.317767,-0.213291
11111,7.949162,-0.314341,-0.199858
11112,7.901460,-0.321045,-0.201717
11113,7.897540,-0.290972,-0.241096
11114,7.928728,-0.346154,-0.145904
11115,7.976457,-0.339677,-0.144159
11116,7.927428,-0.335238,-0.168023
11117,7.855017,-0.338349,-0.181304
11118,7.880985,-0.352542,-0.147611
11119,7.949402,-0.359425,-0.098967
11120,7.930531,-0.364844,-0.087542
11121,7.978277,-0.358432,-0.085813
11122,7.939065,-0.352790,-0.122435
11123,7.896491,-0.071122,-0.373378
11124,7.862715,-0.047330,-0.381778
11125,7.942283,-0.035561,-0.370366
11126,7.879603,-0.059226,-0.377578
11127,7.877934,-0.023665,-0.381136
11128,7.831225,-0.059219,-0.384299
11129,7.849837,-0.105515,-0.370233
11130,7.937873,-0.095092,-0.362120
11131,7.971421,-0.083446,-0.360021
11132,7.917182,-0.083107,-0.367749
11133,7.911553,-0.140423,-0.350973
11134,7.965713,-0.140617,-0.342756
11135,7.924713,-0.117758,-0.356547
11136,7.857368,-0.140166,-0.359030
11137,7.861833,-0.206352,-0.324760
11138,7.914682,-0.184835,-0.329199
11139,7.890060,-0.235264,-0.296831
11140,7.888258,-0.195594,-0.326980
11141,7.942332,-0.195472,-0.318146
11142,7.913117,-0.162629,-0.340086
11143,7.832508,-0.173130,-0.345924
11144,8.351640,-0.222407,-0.223321
11145,8.325516,-0.195729,-0.251945
11146,8.388648,-0.218363,-0.219599
11147,8.338578,-0.209068,-0.237633
11148,8.337357,-0.186350,-0.256615
11149,8.277604,-0.230402,-0.230673
11150,8.275191,-0.185156,-0.268823
11151,8.276397,-0.207779,-0.249748
11152,8.300354,-0.190443,-0.260384
11153,8.314622,-0.226404,-0.226997
11154,8.273223,-0.159562,-0.283594
11155,8.227781,-0.206041,-0.261955
11156,8.205027,-0.237727,-0.238217
11157,8.215203,-0.199307,-0.269212
11158,8.216404,-0.221884,-0.250086
11159,8.168730,-0.241349,-0.241948
11160,8.251486,-0.195599,-0.265389
11161,8.241315,-0.234064,-0.234445
11162,8.325553,-0.251353,-0.196478
11163,8.337407,-0.255969,-0.187230
11164,8.338596,-0.236880,-0.209900
11165,8.275230,-0.268635,-0.185419
11166,8.273280,-0.283441,-0.159809
11167,8.300391,-0.259994,-0.190948
11168,8.276417,-0.249518,-0.208046
11169,8.227811,-0.261610,-0.206472
11170,8.216419,-0.249669,-0.222344
11171,8.215241,-0.268855,-0.199780
11172,8.251520,-0.265123,-0.195945
11173,7.101885,-0.328000,-0.354510
11174,7.108116,-0.375601,-0.302439
11175,7.072952,-0.312801,-0.371901
11176,7.105001,-0.351801,-0.328475
11177,7.054088,-0.373574,-0.314966
11178,7.152568,-0.304306,-0.367044
11179,7.119141,-0.258273,-0.401614
11180,7.127226,-0.316153,-0.360777
11181,7.162070,-0.377153,-0.289530
11182,7.184296,-0.341506,-0.321832
11183,7.201065,-0.267731,-0.387313
11184,7.229643,-0.280855,-0.372955
11185,7.196148,-0.234563,-0.407178
11186,7.176816,-0.286019,-0.377178
11187,6.513391,-0.406152,-0.372335
11188,6.467589,-0.359637,-0.423978
11189,6.562894,-0.389194,-0.381831
11190,6.490490,-0.382894,-0.398157
11191,6.480554,-0.337313,-0.439378
11192,6.395071,-0.352518,-0.439903
11193,6.404583,-0.395309,-0.395720
11194,6.431330,-0.356078,-0.431940
11195,6.463743,-0.422126,-0.361937
11196,6.384166,-0.301493,-0.473825
11197,6.327578,-0.382680,-0.423505
11198,6.303096,-0.438251,-0.369667
11199,6.305664,-0.366713,-0.439793
11200,6.315337,-0.410465,-0.396586
11201,6.247563,-0.438072,-0.378517
11202,6.361324,-0.367599,-0.431704
11203,6.358596,-0.438175,-0.360603
11204,6.535484,-0.446910,-0.318223
11205,6.565795,-0.448886,-0.309489
11206,6.524437,-0.426531,-0.345279
11207,6.515853,-0.462775,-0.297567
11208,6.310808,-0.478430,-0.314613
11209,6.258947,-0.497223,-0.294659
11210,6.306952,-0.458340,-0.342140
11211,6.284877,-0.487826,-0.304636
11212,6.225488,-0.467558,-0.341013
11213,6.340271,-0.486797,-0.294909
11214,6.291331,-0.517844,-0.242930
11215,7.621461,-0.310438,-0.278446
11216,7.560941,-0.309663,-0.291046
11217,7.526477,-0.267478,-0.336026
11218,7.616986,-0.267232,-0.315827
11219,7.591201,-0.310051,-0.284746
11220,7.543709,-0.288570,-0.313536
11221,7.569493,-0.245751,-0.344616
11222,7.533903,-0.346001,-0.252834
11223,7.580133,-0.360016,-0.218017
11224,7.547422,-0.327832,-0.271940
11225,7.623913,-0.342235,-0.230823
11226,7.483153,-0.287737,-0.325595
11227,7.486866,-0.326999,-0.283999
11228,5.649118,-0.512833,-0.372413
11229,5.736352,-0.494861,-0.384551
11230,5.635285,-0.544978,-0.319940
11231,5.692735,-0.503847,-0.378482
11232,5.751454,-0.508931,-0.362672
11233,5.764565,-0.469379,-0.410069
11234,5.662017,-0.471078,-0.417893
11235,5.697390,-0.322039,-0.541469
11236,5.632185,-0.344182,-0.533815
11237,5.702587,-0.292525,-0.556547
11238,5.664787,-0.333110,-0.537642
11239,5.610078,-0.296438,-0.561033
11240,5.724562,-0.339357,-0.527632
11241,5.653550,-0.386752,-0.498594
11242,5.588815,-0.495110,-0.403015
11243,5.567098,-0.509930,-0.386142
11244,5.618967,-0.503971,-0.387714
11245,5.571403,-0.442803,-0.461643
11246,5.519615,-0.449255,-0.460478
11247,5.580109,-0.468957,-0.432329
11248,5.623159,-0.436063,-0.462508
11249,5.577621,-0.383677,-0.511319
11250,5.604903,-0.363929,-0.522567
11251,5.553179,-0.371205,-0.522395
11252,5.574512,-0.413240,-0.486481
11253,5.463584,-0.074155,-0.643225
11254,5.395143,-0.049428,-0.649996
11255,5.488532,-0.037077,-0.643612
11256,5.429364,-0.061792,-0.646610
11257,5.390834,-0.024714,-0.651185
11258,5.413115,-0.147338,-0.633942
11259,5.335841,-0.074177,-0.651192
11260,5.374478,-0.110758,-0.642567
11261,5.365492,-0.061803,-0.650594
11262,5.438350,-0.110746,-0.638583
11263,5.296948,-0.037089,-0.655312
11264,5.322590,-0.146972,-0.639536
11265,5.354167,-0.218070,-0.617022
11266,5.299911,-0.146838,-0.640796
11267,5.338378,-0.182521,-0.628279
11268,5.324449,-0.252039,-0.604615
11269,5.329215,-0.110575,-0.645364
11270,5.383641,-0.182704,-0.625482
11271,5.505468,-0.133821,-0.630626
11272,5.528565,-0.130347,-0.629656
11273,5.484526,-0.103988,-0.636926
11274,5.500727,-0.198830,-0.613608
11275,5.544349,-0.223762,-0.600930
11276,5.503098,-0.166326,-0.622117
11277,5.456921,-0.173084,-0.623775
11278,5.432166,-0.228580,-0.608076
11279,5.393166,-0.223325,-0.612549
11280,5.436792,-0.248178,-0.599621
11281,5.466447,-0.213705,-0.610842
11282,8.726448,-0.055529,-0.252155
11283,8.682009,-0.098116,-0.246348
11284,8.708268,-0.027765,-0.258008
11285,8.704229,-0.076823,-0.249252
11286,8.662255,-0.095239,-0.250734
11287,8.760852,-0.108395,-0.228317
11288,8.675837,-0.142417,-0.224755
11289,8.718345,-0.125406,-0.226536
11290,8.678923,-0.120266,-0.235552
11291,8.743650,-0.081962,-0.240236
11292,8.633043,-0.158444,-0.221426
11293,8.766587,-0.036922,-0.249111
11294,8.768204,-0.018461,-0.250201
11295,8.746518,-0.046226,-0.250633
11296,8.804492,-0.055531,-0.239450
11297,8.825365,-0.027766,-0.239251
11298,8.785540,-0.046227,-0.244281
11299,8.782672,-0.081963,-0.233884
11300,8.834036,-0.136907,-0.198336
11301,8.839616,-0.094575,-0.220749
11302,8.870076,-0.149215,-0.180531
11303,8.836826,-0.115741,-0.209543
11304,8.859301,-0.090896,-0.218829
11305,8.822054,-0.075053,-0.230100
11306,8.797444,-0.122651,-0.213327
11307,8.851248,-0.221356,-0.088205
11308,8.851737,-0.200472,-0.128563
11309,8.865143,-0.218970,-0.088101
11310,8.851492,-0.210914,-0.108384
11311,8.878927,-0.180997,-0.145644
11312,8.821605,-0.238826,-0.045142
11313,8.833921,-0.238939,-0.022571
11314,8.836426,-0.230091,-0.066674
11315,8.795684,-0.230713,-0.088801
11316,8.823710,-0.215592,-0.108682
11317,8.808644,-0.234769,-0.066971
11318,8.690087,-0.263862,0.000000
11319,8.743557,-0.251468,-0.045147
11320,8.777924,-0.248212,-0.030040
11321,8.769820,-0.251290,0.000000
11322,8.716822,-0.257665,-0.022574
11323,8.760741,-0.249840,-0.037594
11324,8.773872,-0.249751,-0.015020
11325,8.729953,-0.257576,0.000000
11326,8.799765,-0.243519,-0.037591
11327,8.769620,-0.241091,-0.066974
11328,8.808029,-0.245171,0.000000
11329,8.812344,-0.201042,-0.139120
11330,8.819857,-0.181976,-0.161424
11331,8.832040,-0.200757,-0.133841
11332,8.816101,-0.191509,-0.150272
11333,8.862987,-0.171749,-0.162075
11334,8.764998,-0.218596,-0.125500
11335,8.780341,-0.224655,-0.107150
11336,8.788671,-0.209819,-0.132310
11337,8.733422,-0.201616,-0.159400
11338,8.776640,-0.191796,-0.160412
11339,8.749210,-0.210106,-0.142450
11340,8.741232,-0.241008,-0.085927
11341,8.742394,-0.246238,-0.065537
11342,8.753115,-0.229802,-0.105713
11343,8.713980,-0.246131,-0.084291
11344,8.702034,-0.254996,-0.042145
11345,8.727606,-0.243570,-0.085109
11346,8.723701,-0.223873,-0.121845
11347,9.263815,-0.168173,0.000000
11348,9.295063,-0.158794,-0.034782
11349,9.325391,-0.155302,-0.023129
11350,9.327582,-0.156595,0.000000
11351,9.279439,-0.163484,-0.017391
11352,9.310227,-0.157048,-0.028955
11353,9.326487,-0.155949,-0.011564
11354,9.295699,-0.162384,0.000000
11355,9.324875,-0.141689,-0.067876
11356,9.355916,-0.147346,-0.034782
11357,9.340396,-0.144517,-0.051329
11358,9.340654,-0.151324,-0.028956
11359,9.309969,-0.150241,-0.051329
11360,9.385591,-0.145835,0.000000
11361,9.356586,-0.151215,0.000000
11362,9.370753,-0.146590,-0.017391
11363,9.242253,-0.067768,-0.158152
11364,9.206535,-0.044751,-0.172703
11365,9.253034,-0.033884,-0.163162
11366,9.224394,-0.056259,-0.165427
11367,9.203917,-0.022375,-0.176000
11368,9.216092,-0.125366,-0.124452
11369,9.177175,-0.067777,-0.170593
11370,9.196633,-0.096571,-0.147522
11371,9.191855,-0.056264,-0.171648
11372,9.229172,-0.096567,-0.141302
11373,9.155305,-0.033888,-0.180867
11374,9.064166,-0.142562,-0.144468
11375,9.101268,-0.076919,-0.181044
11376,9.140068,-0.095630,-0.164173
11377,9.140153,-0.134060,-0.134557
11378,9.082717,-0.109740,-0.162756
11379,9.120668,-0.086274,-0.172609
11380,9.140110,-0.114845,-0.149365
11381,9.102159,-0.138311,-0.139512
11382,9.158621,-0.081703,-0.167383
11383,9.117352,-0.038460,-0.186092
11384,9.178122,-0.129713,-0.129504
11385,9.201299,-0.179297,0.000000
11386,9.206498,-0.172808,-0.044368
11387,9.242211,-0.158413,-0.067175
11388,9.232557,-0.173735,0.000000
11389,9.203898,-0.176052,-0.022184
11390,9.224355,-0.165611,-0.055771
11391,9.253013,-0.163293,-0.033587
11392,9.133436,-0.191140,0.000000
11393,9.177131,-0.170836,-0.067184
11394,9.155283,-0.180988,-0.033592
11395,9.191814,-0.171822,-0.055776
11396,9.167367,-0.185218,0.000000
11397,9.229151,-0.141889,-0.095814
11398,9.196611,-0.148101,-0.095818
11399,9.140088,-0.163925,-0.096046
11400,9.101351,-0.180496,-0.078157
11401,9.140120,-0.148993,-0.115301
11402,9.120719,-0.172211,-0.087101
11403,9.082758,-0.161529,-0.111312
11404,9.158609,-0.167381,-0.081615
11405,9.117393,-0.185818,-0.039078
11406,8.695530,-0.164244,-0.205371
11407,8.662107,-0.189274,-0.189983
11408,8.685684,-0.153330,-0.215063
11409,8.678819,-0.176759,-0.197677
11410,8.626178,-0.181872,-0.204039
11411,8.748162,-0.159054,-0.198914
11412,8.754507,-0.133725,-0.213616
11413,8.721846,-0.161649,-0.202142
11414,8.697765,-0.195445,-0.174691
11415,8.740792,-0.180335,-0.179157
11416,8.800882,-0.160236,-0.187046
11417,8.810369,-0.171106,-0.174235
11418,8.817459,-0.148571,-0.192691
11419,8.774522,-0.159645,-0.192980
11420,9.700277,-0.022676,-0.078996
11421,9.692676,-0.015082,-0.082499
11422,9.725069,-0.011338,-0.074958
11423,9.696476,-0.018879,-0.080747
11424,9.704751,-0.007541,-0.080483
11425,9.649570,-0.043960,-0.082218
11426,9.663855,-0.022635,-0.087283
11427,9.656713,-0.033297,-0.084750
11428,9.678265,-0.018858,-0.084891
11429,9.674923,-0.033318,-0.080607
11430,9.670432,-0.011317,-0.087289
11431,9.605260,-0.062049,-0.081671
11432,9.615962,-0.071089,-0.070794
11433,9.598557,-0.082735,-0.062950
11434,9.582866,-0.070401,-0.080488
11435,9.610611,-0.066569,-0.076232
11436,9.607260,-0.076912,-0.066872
11437,9.579515,-0.080744,-0.071128
11438,9.643691,-0.067165,-0.066427
11439,9.646631,-0.055563,-0.074323
11440,9.629826,-0.069127,-0.068611
11441,9.627415,-0.053005,-0.081944
11442,9.636148,-0.084825,-0.045153
11443,9.617353,-0.083780,-0.054052
11444,9.639920,-0.075995,-0.055790
11445,9.670151,-0.074941,-0.047610
11446,9.673084,-0.081835,-0.032805
11447,9.657149,-0.088619,-0.023247
11448,9.653150,-0.079883,-0.046382
11449,9.671617,-0.078388,-0.040207
11450,9.665116,-0.085227,-0.028026
11451,9.646649,-0.086722,-0.034200
11452,9.703988,-0.064414,-0.049657
11453,9.691454,-0.079965,-0.026175
11454,9.697721,-0.072190,-0.037916
11455,9.682269,-0.080900,-0.029490
11456,9.687070,-0.069677,-0.048633
11457,9.677010,-0.087294,0.000000
11458,9.667079,-0.087957,-0.011624
11459,9.684232,-0.083630,-0.013087
11460,9.515798,-0.079106,-0.091199
11461,9.510467,-0.055750,-0.108308
11462,9.538135,-0.078929,-0.085252
11463,9.513132,-0.067428,-0.099753
11464,9.520178,-0.049120,-0.109177
11465,9.470996,-0.079041,-0.102612
11466,9.484709,-0.041681,-0.119853
11467,9.477853,-0.060361,-0.111232
11468,9.497588,-0.048716,-0.114080
11469,9.493397,-0.079074,-0.096905
11470,9.490282,-0.020840,-0.122270
11471,9.451990,-0.027608,-0.130349
11472,9.429661,-0.041695,-0.131054
11473,9.448437,-0.013804,-0.132467
11474,9.440826,-0.034651,-0.130702
11475,9.407626,-0.020847,-0.138444
11476,9.468349,-0.034644,-0.125101
11477,9.450329,-0.060368,-0.116833
11478,8.990526,-0.108442,-0.186103
11479,8.985162,-0.152127,-0.153682
11480,8.971714,-0.097829,-0.194946
11481,8.987844,-0.130284,-0.169892
11482,8.945639,-0.156825,-0.158204
11483,9.031793,-0.076923,-0.193804
11484,9.013035,-0.038462,-0.204285
11485,9.011160,-0.092683,-0.189954
11486,9.024664,-0.147344,-0.149075
11487,9.047980,-0.109743,-0.169136
11488,9.066200,-0.050822,-0.196223
11489,9.083734,-0.063871,-0.188633
11490,9.066251,-0.025411,-0.199433
11491,9.048996,-0.063873,-0.195014
11492,9.066302,-0.202642,0.000000
11493,9.066275,-0.196001,-0.051623
11494,9.099869,-0.196891,0.000000
11495,9.066288,-0.199322,-0.025811
11496,9.083813,-0.188249,-0.064890
11497,9.031880,-0.193292,-0.078161
11498,9.013079,-0.204028,-0.039081
11499,9.049077,-0.194646,-0.064892
11500,9.030290,-0.208704,0.000000
11501,9.048023,-0.167927,-0.111315
11502,8.990586,-0.185323,-0.109746
11503,8.987874,-0.168725,-0.131714
11504,8.971770,-0.194383,-0.098871
11505,9.011233,-0.189307,-0.093954
11506,9.404106,-0.139678,-0.027572
11507,9.434807,-0.135291,-0.018352
11508,9.444885,-0.134585,0.000000
11509,9.394848,-0.142757,-0.013786
11510,9.419456,-0.137485,-0.022962
11511,9.439846,-0.134938,-0.009176
11512,9.415238,-0.140210,0.000000
11513,9.421579,-0.128114,-0.054080
11514,9.459217,-0.128930,-0.027579
11515,9.440398,-0.128522,-0.040830
11516,9.447012,-0.132111,-0.022965
11517,9.412842,-0.133896,-0.040826
11518,9.470369,-0.129636,0.000000
11519,9.477535,-0.126808,-0.013790
11520,7.531341,-0.391342,-0.175694
11521,7.553220,-0.409071,-0.119413
11522,7.483789,-0.399713,-0.171813
11523,7.542280,-0.400206,-0.147553
11524,7.534634,-0.415732,-0.102494
11525,7.582341,-0.408434,-0.106703
11526,7.578852,-0.382687,-0.179447
11527,7.752471,-0.383366,-0.113120
11528,7.729842,-0.366745,-0.166379
11529,7.783691,-0.383569,-0.094613
11530,7.741156,-0.375056,-0.139749
11531,7.781542,-0.362838,-0.157848
11532,7.732159,-0.388732,-0.103563
11533,7.678103,-0.370389,-0.174790
11534,7.501704,-0.369245,-0.225699
11535,7.470441,-0.367332,-0.236119
11536,7.516522,-0.380293,-0.200696
11537,7.517803,-0.357623,-0.239266
11538,6.938129,-0.483489,-0.138160
11539,6.998988,-0.488533,-0.083158
11540,6.911615,-0.488549,-0.131380
11541,6.968558,-0.486011,-0.110659
11542,6.975648,-0.494797,-0.041579
11543,6.929349,-0.460922,-0.203513
11544,6.871870,-0.459073,-0.222711
11545,6.933739,-0.472205,-0.170836
11546,7.043962,-0.461952,-0.163937
11547,7.021475,-0.475243,-0.123547
11548,6.986656,-0.461437,-0.183725
11549,7.197203,-0.448462,-0.145421
11550,7.146118,-0.453000,-0.151765
11551,7.130609,-0.424786,-0.222621
11552,7.206613,-0.413584,-0.211021
11553,7.171661,-0.450731,-0.148593
11554,7.138364,-0.438893,-0.187193
11555,7.173316,-0.401745,-0.249621
11556,7.172679,-0.474388,0.000000
11557,7.109169,-0.475018,-0.083161
11558,7.140924,-0.474703,-0.041580
11559,7.127644,-0.464009,-0.117463
11560,7.184941,-0.461425,-0.072711
11561,7.087286,-0.443369,-0.193279
11562,7.076565,-0.468485,-0.123549
11563,7.057078,-0.485395,-0.055353
11564,7.064112,-0.487652,0.000000
11565,7.028033,-0.486964,-0.069255
11566,7.060595,-0.486524,-0.027677
11567,7.008209,-0.494357,0.000000
11568,7.083123,-0.480207,-0.069257
11569,7.118395,-0.481020,0.000000
11570,7.087466,-0.409516,-0.259477
11571,7.109038,-0.417151,-0.241049
11572,7.097791,-0.392558,-0.280958
11573,7.023071,-0.424335,-0.250200
11574,7.033517,-0.443144,-0.207068
11575,7.055269,-0.416925,-0.254839
11576,7.011565,-0.397941,-0.288846
11577,6.953528,-0.435535,-0.247463
11578,6.930586,-0.426419,-0.267086
11579,6.941439,-0.448229,-0.225488
11580,6.988300,-0.429935,-0.248831
11581,7.432008,-0.073269,-0.435701
11582,7.387343,-0.113556,-0.432914
11583,7.409239,-0.036635,-0.441643
11584,7.409675,-0.093412,-0.434307
11585,7.365115,-0.105481,-0.437761
11586,7.386871,-0.140605,-0.424000
11587,7.453980,-0.108879,-0.423629
11588,7.510322,-0.229153,-0.365786
11589,7.544593,-0.185462,-0.384877
11590,7.518399,-0.248315,-0.350906
11591,7.527457,-0.207307,-0.375331
11592,7.578551,-0.204743,-0.369042
11593,7.484764,-0.230402,-0.368905
11594,7.510272,-0.164975,-0.398217
11595,7.486098,-0.048772,-0.432080
11596,7.488874,-0.024386,-0.433075
11597,7.459053,-0.061021,-0.433890
11598,7.535635,-0.073271,-0.422102
11599,7.564689,-0.036636,-0.421425
11600,7.510866,-0.061022,-0.427091
11601,7.505793,-0.108880,-0.416830
11602,7.562194,-0.126147,-0.405816
11603,7.553394,-0.155805,-0.395346
11604,7.583744,-0.121365,-0.404296
11605,7.548915,-0.099709,-0.413959
11606,9.727815,-0.071344,-0.026179
11607,9.737621,-0.055045,-0.049052
11608,9.738838,-0.071132,-0.013090
11609,9.732718,-0.063194,-0.037616
11610,9.746034,-0.052215,-0.049218
11611,9.728619,-0.035727,-0.066855
11612,9.716304,-0.050071,-0.058256
11613,9.733120,-0.045386,-0.057953
11614,9.715902,-0.067879,-0.037918
11615,9.739240,-0.017863,-0.068888
11616,9.702272,-0.038527,-0.072080
11617,9.677193,-0.055391,-0.067400
11618,9.701274,-0.030602,-0.075538
11619,9.689732,-0.046959,-0.069740
11620,9.663382,-0.049676,-0.074809
11621,9.715446,-0.037127,-0.069468
11622,9.690591,-0.059903,-0.058528
11623,9.716826,-0.078468,0.000000
11624,9.711123,-0.077851,-0.017362
11625,9.733344,-0.074694,0.000000
11626,9.713975,-0.078159,-0.008681
11627,9.719469,-0.074597,-0.021771
11628,9.701288,-0.078908,-0.021768
11629,9.696918,-0.082881,0.000000
11630,9.663840,-0.066458,-0.060897
11631,9.670516,-0.060925,-0.064148
11632,9.653765,-0.066811,-0.063662
11633,9.666995,-0.070699,-0.054253
11634,9.266977,-0.098056,-0.135907
11635,9.303324,-0.098230,-0.127570
11636,9.296030,-0.111867,-0.117621
11637,9.241534,-0.111711,-0.130179
11638,9.285150,-0.098143,-0.131738
11639,9.299677,-0.105049,-0.122595
11640,9.256061,-0.118617,-0.121036
11641,9.316965,-0.067824,-0.143320
11642,9.346698,-0.083742,-0.128127
11643,9.331831,-0.075783,-0.135723
11644,9.325011,-0.090986,-0.127849
11645,9.291971,-0.082940,-0.139613
11646,9.375873,-0.098003,-0.110404
11647,9.335952,-0.104935,-0.114012
11648,9.361286,-0.090873,-0.119266
11649,9.382469,-0.052320,-0.136781
11650,9.360649,-0.057700,-0.139014
11651,9.351950,-0.034739,-0.148111
11652,9.384030,-0.026160,-0.141308
11653,9.371559,-0.055010,-0.137897
11654,9.356299,-0.046219,-0.143563
11655,9.368770,-0.017369,-0.146973
11656,9.353673,-0.070721,-0.133570
11657,9.379171,-0.075162,-0.123592
11658,9.334457,-0.051281,-0.145715
11659,9.267179,-0.067907,-0.153217
11660,9.254716,-0.067838,-0.155684
11661,9.267078,-0.082982,-0.144562
11662,9.291094,-0.034735,-0.159541
11663,9.277455,-0.017368,-0.163857
11664,9.279137,-0.051321,-0.156379
11665,9.304029,-0.051280,-0.151430
11666,9.322745,-0.023102,-0.155797
11667,9.325163,-0.011551,-0.156196
11668,9.306919,-0.028919,-0.157669
11669,9.337347,-0.028920,-0.151954
11670,9.423466,-0.088628,-0.106635
11671,9.423477,-0.104332,-0.091321
11672,9.399371,-0.115823,-0.084258
11673,9.399669,-0.093315,-0.108520
11674,9.423472,-0.096480,-0.098978
11675,9.411424,-0.110078,-0.087790
11676,9.387622,-0.106913,-0.097331
11677,9.447108,-0.106981,-0.080925
11678,9.459052,-0.093011,-0.091768
11679,9.435293,-0.105656,-0.086123
11680,9.447231,-0.083835,-0.104623
11681,9.410475,-0.121968,-0.069169
11682,9.434344,-0.117547,-0.067503
11683,9.412231,-0.062316,-0.126289
11684,9.397350,-0.057318,-0.131535
11685,9.417848,-0.075472,-0.116462
11686,9.420946,-0.052005,-0.128671
11687,9.270903,-0.135416,-0.097528
11688,9.269793,-0.152858,-0.067557
11689,9.243497,-0.130391,-0.110990
11690,9.270348,-0.144137,-0.082543
11691,9.256002,-0.155635,-0.067366
11692,9.282428,-0.155826,-0.051170
11693,9.297889,-0.138553,-0.082702
11694,9.377894,-0.141346,-0.041474
11695,9.373250,-0.135010,-0.061028
11696,9.391000,-0.140512,-0.034523
11697,9.375572,-0.138178,-0.051251
11698,9.397415,-0.131562,-0.057554
11699,9.366905,-0.144346,-0.038128
11700,9.349063,-0.138350,-0.064452
11701,9.306054,-0.123549,-0.102458
11702,9.301042,-0.117708,-0.110039
11703,9.288479,-0.129483,-0.099993
11704,9.350913,-0.122183,-0.090882
11705,9.363393,-0.110093,-0.100643
11706,9.328484,-0.122866,-0.096670
11707,9.337894,-0.131936,-0.079379
11708,9.374643,-0.125018,-0.078984
11709,9.373946,-0.130014,-0.070006
11710,9.387007,-0.120421,-0.081621
11711,9.362778,-0.123600,-0.084933
11712,9.464456,-0.118296,-0.055869
11713,9.455782,-0.112638,-0.068397
11714,9.461836,-0.123613,-0.041724
11715,9.485888,-0.113105,-0.056986
11716,9.478442,-0.096073,-0.079799
11717,9.475172,-0.115701,-0.056427
11718,9.490871,-0.118896,-0.028493
11719,9.511026,-0.102302,-0.065897
11720,9.520472,-0.106101,-0.054373
11721,9.513412,-0.090704,-0.078548
11722,9.498457,-0.107704,-0.061442
11723,7.235808,-0.462956,-0.058273
11724,7.286134,-0.458659,-0.038816
11725,7.281179,-0.460897,0.000000
11726,7.204243,-0.468672,-0.029137
11727,7.260971,-0.460808,-0.048545
11728,7.283656,-0.459778,-0.019408
11729,7.226929,-0.467643,0.000000
11730,7.298002,-0.444068,-0.115616
11731,7.342695,-0.449427,-0.058271
11732,7.320348,-0.446748,-0.086944
11733,7.314414,-0.454043,-0.048543
11734,7.266905,-0.453512,-0.086945
11735,7.333824,-0.454241,0.000000
11736,7.364582,-0.448506,-0.029136
11737,7.374304,-0.438889,-0.095743
11738,7.367256,-0.427094,-0.142113
11739,7.393362,-0.437456,-0.090655
11740,7.370780,-0.432992,-0.118928
11741,7.401746,-0.417590,-0.155023
11742,7.358500,-0.444158,-0.077007
11743,7.332629,-0.435581,-0.128864
11744,7.230837,-0.447276,-0.135248
11745,7.214020,-0.447869,-0.140334
11746,7.233322,-0.455116,-0.096761
11747,7.258025,-0.418697,-0.199613
11748,7.237024,-0.398701,-0.238117
11749,7.244431,-0.432987,-0.167430
11750,7.278013,-0.431383,-0.157615
11751,7.317462,-0.415394,-0.189054
11752,7.342359,-0.421244,-0.165583
11753,7.322008,-0.405852,-0.206491
11754,7.287744,-0.417045,-0.194333
11755,8.662690,-0.262588,-0.054483
11756,8.687218,-0.247799,-0.092090
11757,8.676388,-0.263225,-0.027242
11758,8.674954,-0.255194,-0.073287
11759,8.700599,-0.246965,-0.088191
11760,8.633636,-0.250897,-0.106812
11761,8.683893,-0.228259,-0.134288
11762,8.658764,-0.239578,-0.120550
11763,8.685555,-0.238029,-0.113189
11764,8.648163,-0.256743,-0.080648
11765,8.708657,-0.214937,-0.146844
11766,8.653287,-0.213327,-0.164789
11767,8.613198,-0.219147,-0.167400
11768,8.657697,-0.201300,-0.177386
11769,8.633242,-0.216237,-0.166095
11770,8.601724,-0.196809,-0.192748
11771,8.668590,-0.220793,-0.149538
11772,8.623417,-0.235022,-0.137106
11773,8.609565,-0.276365,0.000000
11774,8.617369,-0.272792,-0.036241
11775,8.649826,-0.270113,0.000000
11776,8.613467,-0.274579,-0.018120
11777,8.640029,-0.267690,-0.045362
11778,8.580741,-0.275504,-0.054488
11779,8.553435,-0.282317,-0.027244
11780,8.599055,-0.274148,-0.045364
11781,8.567847,-0.282748,0.000000
11782,8.607188,-0.263201,-0.080650
11783,8.586157,-0.254877,-0.115923
11784,8.599678,-0.237012,-0.141662
11785,8.574273,-0.255760,-0.118346
11786,8.583449,-0.265190,-0.085205
11787,6.207465,-0.547075,-0.202359
11788,6.203201,-0.518456,-0.268083
11789,6.265590,-0.542770,-0.196780
11790,6.205333,-0.532766,-0.235221
11791,6.231074,-0.507840,-0.281371
11792,6.172860,-0.511496,-0.286640
11793,6.149315,-0.551146,-0.207852
11794,5.959880,-0.539262,-0.279041
11795,5.983285,-0.567886,-0.208852
11796,5.926909,-0.533820,-0.295063
11797,5.971582,-0.553574,-0.243946
11798,5.929319,-0.573966,-0.206512
11799,5.980808,-0.526860,-0.297010
11800,6.037225,-0.561552,-0.211098
11801,6.224598,-0.565262,-0.136770
11802,6.257762,-0.565894,-0.116881
11803,6.216031,-0.556168,-0.169564
11804,6.199690,-0.570849,-0.122631
11805,5.994182,-0.587333,-0.141140
11806,5.988733,-0.577609,-0.174996
11807,5.969744,-0.593510,-0.122352
11808,6.023775,-0.587922,-0.124809
11809,9.602000,-0.043168,-0.093817
11810,9.590073,-0.042824,-0.096664
11811,9.603630,-0.052608,-0.087744
11812,9.621690,-0.022642,-0.096542
11813,9.607139,-0.011321,-0.100876
11814,9.611845,-0.032905,-0.095180
11815,9.635630,-0.033301,-0.089380
11816,9.640252,-0.015044,-0.094032
11817,9.652054,-0.018839,-0.090658
11818,9.639461,-0.007522,-0.094793
11819,9.630971,-0.018843,-0.095287
11820,7.789765,-0.328747,-0.218199
11821,7.832858,-0.308489,-0.236464
11822,7.811504,-0.343839,-0.183758
11823,7.811312,-0.318618,-0.227331
11824,7.854825,-0.313128,-0.224877
11825,7.744421,-0.287087,-0.279443
11826,7.831368,-0.275701,-0.274242
11827,7.787895,-0.281394,-0.276842
11828,7.832113,-0.292095,-0.255353
11829,7.767093,-0.307917,-0.248821
11830,7.874828,-0.269939,-0.271572
11831,7.735402,-0.344651,-0.206775
11832,7.732622,-0.355698,-0.186577
11833,7.762584,-0.336699,-0.212487
11834,7.686063,-0.334676,-0.234210
11835,7.656213,-0.354354,-0.208705
11836,7.710733,-0.339664,-0.220493
11837,7.715242,-0.310882,-0.256826
11838,7.678834,-0.257296,-0.318476
11839,7.662470,-0.302638,-0.278951
11840,7.645672,-0.240660,-0.335842
11841,7.670652,-0.279967,-0.298714
11842,7.641966,-0.306538,-0.278699
11843,7.674266,-0.318657,-0.256580
11844,7.711628,-0.272191,-0.298960
11845,5.298409,-0.377146,-0.538377
11846,5.248797,-0.396014,-0.527729
11847,5.296570,-0.331577,-0.565292
11848,5.273603,-0.386580,-0.533053
11849,5.235590,-0.378980,-0.540437
11850,5.301195,-0.458547,-0.470681
11851,5.225393,-0.445513,-0.488057
11852,5.263294,-0.452030,-0.479369
11853,5.237095,-0.420764,-0.507893
11854,5.299802,-0.417847,-0.504529
11855,5.187460,-0.438518,-0.496221
11856,5.243249,-0.498915,-0.432095
11857,5.289879,-0.528519,-0.391559
11858,5.228696,-0.508457,-0.421621
11859,5.266564,-0.513717,-0.411827
11860,5.283785,-0.556744,-0.346980
11861,5.234321,-0.472214,-0.460076
11862,5.295537,-0.493533,-0.431120
11863,5.355050,-0.405042,-0.513673
11864,5.368443,-0.390606,-0.523473
11865,5.326729,-0.391094,-0.526025
11866,5.384530,-0.457340,-0.465213
11867,5.426179,-0.456524,-0.462263
11868,5.369790,-0.431191,-0.489443
11869,5.342862,-0.457944,-0.467947
11870,5.349341,-0.505581,-0.415605
11871,5.319610,-0.517050,-0.403582
11872,5.361297,-0.516295,-0.400677
11873,5.366935,-0.481461,-0.440409
11874,5.465370,-0.642627,-0.078216
11875,5.517913,-0.627670,-0.143201
11876,5.489425,-0.643313,-0.039108
11877,5.491641,-0.635149,-0.110708
11878,5.543248,-0.626485,-0.140076
11879,5.416622,-0.631816,-0.155292
11880,5.519274,-0.607628,-0.212485
11881,5.467948,-0.619722,-0.183889
11882,5.518593,-0.617649,-0.177843
11883,5.440996,-0.637221,-0.116754
11884,5.570362,-0.592376,-0.239976
11885,5.438862,-0.601859,-0.243295
11886,5.347432,-0.612883,-0.230538
11887,5.444258,-0.592024,-0.264395
11888,5.393147,-0.607371,-0.236917
11889,5.312562,-0.598926,-0.266469
11890,5.479068,-0.604744,-0.227890
11891,5.382027,-0.622349,-0.192915
11892,5.386524,-0.652374,0.000000
11893,5.396339,-0.649713,-0.052131
11894,5.450002,-0.648186,0.000000
11895,5.391432,-0.651043,-0.026066
11896,5.430855,-0.646170,-0.065174
11897,5.337623,-0.650619,-0.078242
11898,5.297839,-0.655026,-0.039121
11899,5.366981,-0.650166,-0.065187
11900,5.322290,-0.655903,0.000000
11901,5.377123,-0.641217,-0.116767
11902,5.318151,-0.637755,-0.155570
11903,5.332792,-0.625319,-0.193054
11904,5.293475,-0.639074,-0.155591
11905,5.327887,-0.644187,-0.116906
11906,9.638670,-0.095553,0.000000
11907,9.635783,-0.094929,-0.015453
11908,9.657840,-0.091424,0.000000
11909,9.637226,-0.095241,-0.007727
11910,9.646466,-0.091774,-0.019350
11911,9.614977,-0.097847,-0.023247
11912,9.603782,-0.101528,-0.011624
11913,9.625380,-0.096388,-0.019350
11914,9.615629,-0.100382,0.000000
11915,9.625563,-0.091336,-0.034200
11916,9.597535,-0.094552,-0.043787
11917,9.598046,-0.088643,-0.053369
11918,9.587855,-0.096951,-0.043312
11919,9.606256,-0.096199,-0.033517
11920,7.823009,-0.235025,-0.311271
11921,7.827188,-0.255363,-0.292756
11922,7.842421,-0.220689,-0.318015
11923,7.775039,-0.218554,-0.330901
11924,7.759730,-0.252820,-0.305172
11925,7.799024,-0.226790,-0.321086
11926,7.789111,-0.179231,-0.348994
11927,7.720866,-0.220384,-0.338419
11928,7.714497,-0.201651,-0.350222
11929,7.699850,-0.238840,-0.328448
11930,7.747953,-0.219469,-0.334660
11931,5.086236,-0.661434,0.075383
11932,5.129361,-0.654908,0.113280
11933,5.043118,-0.659204,0.094593
11934,5.107798,-0.658171,0.094332
11935,5.064680,-0.641689,0.168036
11936,5.107404,-0.663000,0.037691
11937,5.193708,-0.657170,0.056640
11938,5.294731,-0.592207,0.286008
11939,5.222384,-0.553145,0.361946
11940,5.148387,-0.582980,0.317792
11941,5.147459,-0.612958,0.255494
11942,5.258557,-0.572676,0.323977
11943,5.185385,-0.568063,0.339869
11944,5.147923,-0.597969,0.286643
11945,5.221095,-0.602583,0.270751
11946,5.149528,-0.504385,0.431522
11947,5.074993,-0.576625,0.333064
11948,5.112260,-0.540505,0.382293
11949,5.111690,-0.579803,0.325428
11950,5.185956,-0.528765,0.396734
11951,5.073730,-0.620714,0.239142
11952,5.037496,-0.602548,0.277927
11953,5.277232,-0.642055,0.146704
11954,5.184786,-0.639747,0.173126
11955,5.267644,-0.650744,0.073352
11956,5.231009,-0.640901,0.159915
11957,5.157073,-0.647327,0.143203
11958,5.166122,-0.626353,0.214310
11959,5.285982,-0.617131,0.216356
11960,6.435207,-0.544667,0.128576
11961,6.375961,-0.559403,0.085464
11962,6.464620,-0.548933,0.064288
11963,6.405584,-0.552035,0.107020
11964,6.376194,-0.562591,0.042732
11965,6.373260,-0.507748,0.250468
11966,6.316393,-0.557526,0.128578
11967,6.344826,-0.532637,0.189523
11968,6.346177,-0.558464,0.107021
11969,6.404234,-0.526207,0.189522
11970,6.286410,-0.567879,0.064289
11971,6.102257,-0.535861,0.255555
11972,6.237787,-0.522055,0.253133
11973,6.223539,-0.485434,0.320222
11974,6.148299,-0.470961,0.353759
11975,6.170022,-0.528958,0.254344
11976,6.230663,-0.503745,0.286677
11977,6.185919,-0.478198,0.336990
11978,6.125278,-0.503411,0.304657
11979,6.283751,-0.456080,0.350746
11980,6.328506,-0.481914,0.300607
11981,6.253645,-0.470757,0.335484
11982,6.305523,-0.514902,0.251800
11983,6.192029,-0.387367,0.437893
11984,6.170164,-0.429164,0.395826
11985,6.237890,-0.421723,0.394320
11986,6.832577,-0.082787,0.508504
11987,6.885100,-0.124600,0.493609
11988,6.836605,-0.041393,0.511350
11989,6.858839,-0.103693,0.501056
11990,6.918704,-0.062300,0.497336
11991,6.772121,-0.124594,0.507137
11992,6.749229,-0.062297,0.517249
11993,6.802349,-0.103691,0.507820
11994,6.814391,-0.241909,0.457223
11995,6.849746,-0.183254,0.475416
11996,6.793256,-0.183251,0.482180
11997,5.092713,-0.310237,0.588830
11998,5.138948,-0.263882,0.609686
11999,5.046357,-0.311517,0.588802
12000,5.115830,-0.287060,0.599258
12001,5.069474,-0.243336,0.619078
12002,5.138965,-0.351436,0.563642
12003,5.069483,-0.373942,0.549761
12004,5.115839,-0.330836,0.576236
12005,5.277691,-0.302400,0.584970
12006,5.208319,-0.283141,0.597328
12007,5.208328,-0.326918,0.574306
12008,6.826403,-0.361519,0.367834
12009,6.884332,-0.350149,0.369413
12010,6.907643,-0.286710,0.417304
12011,6.820397,-0.301714,0.412529
12012,6.855368,-0.355834,0.368623
12013,6.895988,-0.318430,0.393358
12014,6.861017,-0.264309,0.437264
12015,6.833480,-0.451336,0.248135
12016,6.917650,-0.395241,0.314485
12017,6.875565,-0.423289,0.281310
12018,6.900991,-0.372695,0.341949
12019,6.829941,-0.406427,0.307985
12020,7.000060,-0.327492,0.371547
12021,6.953852,-0.307101,0.394425
12022,6.958855,-0.361367,0.343016
12023,5.086236,-0.075383,0.661434
12024,5.043118,-0.094593,0.659204
12025,5.107404,-0.037691,0.663000
12026,5.129361,-0.113280,0.654908
12027,5.064680,-0.168036,0.641689
12028,5.107798,-0.094332,0.658171
12029,5.193708,-0.056640,0.657170
12030,6.755065,-0.371700,0.369310
12031,6.723443,-0.424898,0.312817
12032,6.790734,-0.366609,0.368572
12033,6.739254,-0.398299,0.341063
12034,6.778461,-0.438117,0.280476
12035,6.714178,-0.320810,0.420211
12036,6.764284,-0.281359,0.438717
12037,6.734622,-0.346255,0.394761
12038,6.612396,-0.391326,0.372236
12039,6.667919,-0.408112,0.342526
12040,6.663287,-0.356068,0.396224
12041,6.894759,-0.491551,0.128062
12042,6.839040,-0.507367,0.085065
12043,6.923533,-0.496306,0.064031
12044,6.866900,-0.499459,0.106563
12045,6.839837,-0.510782,0.042532
12046,6.781783,-0.505127,0.128062
12047,6.807631,-0.478232,0.188098
12048,6.810412,-0.506247,0.106563
12049,6.864119,-0.471444,0.188099
12050,6.754060,-0.516244,0.064031
12051,5.677751,-0.618808,0.126901
12052,5.623204,-0.630313,0.084419
12053,5.721618,-0.621583,0.063451
12054,5.650478,-0.624561,0.105660
12055,5.631793,-0.632428,0.042209
12056,5.587972,-0.588251,0.248694
12057,5.551661,-0.628685,0.126872
12058,5.569816,-0.608468,0.187783
12059,5.587432,-0.629499,0.105645
12060,5.632862,-0.603529,0.187797
12061,5.532570,-0.636342,0.063436
12062,6.245321,-0.553177,0.172595
12063,6.180786,-0.571142,0.131002
12064,6.280857,-0.555351,0.150586
12065,6.213054,-0.562160,0.151799
12066,6.218607,-0.574687,0.065501
12067,6.241554,-0.537616,0.212864
12068,6.141521,-0.553501,0.193278
12069,6.051278,-0.397089,0.447701
12070,6.069273,-0.451231,0.390444
12071,6.121653,-0.392228,0.442797
12072,6.060276,-0.424160,0.419073
12073,6.108786,-0.461096,0.372102
12074,5.910464,-0.406366,0.457009
12075,6.007486,-0.480640,0.363501
12076,5.958975,-0.443503,0.410255
12077,6.038379,-0.465936,0.376972
12078,5.980871,-0.401727,0.452355
12079,6.054871,-0.508250,0.309528
12080,6.125393,-0.584973,0.087093
12081,6.153090,-0.578058,0.109048
12082,6.130949,-0.587617,0.043547
12083,6.059367,-0.583339,0.130991
12084,6.080812,-0.559600,0.193273
12085,6.092380,-0.584156,0.109042
12086,6.036511,-0.592726,0.065496
12087,8.438327,-0.292591,0.076479
12088,8.393353,-0.286622,0.115763
12089,8.440137,-0.297207,0.038240
12090,8.415840,-0.289607,0.096121
12091,8.373796,-0.300739,0.057881
12092,8.479203,-0.272720,0.115761
12093,8.502666,-0.280925,0.057881
12094,8.458765,-0.282656,0.096120
12095,8.425656,-0.215877,0.214320
12096,8.409505,-0.251250,0.165041
12097,8.452430,-0.244299,0.165041
12098,9.839629,-0.042294,0.024901
12099,9.818912,-0.038407,0.038407
12100,9.843128,-0.044783,0.012450
12101,9.829270,-0.040350,0.031654
12102,9.817010,-0.046841,0.019203
12103,9.850264,-0.026585,0.037935
12104,9.864561,-0.032644,0.018968
12105,9.844946,-0.034439,0.031418
12106,9.817010,-0.019203,0.046841
12107,9.832686,-0.013292,0.046605
12108,5.568583,-0.136952,0.625300
12109,5.634522,-0.091076,0.628506
12110,5.541031,-0.068476,0.634649
12111,5.601552,-0.114014,0.626903
12112,5.637452,-0.045538,0.631525
12113,5.621451,-0.267467,0.577123
12114,5.694674,-0.136958,0.615270
12115,5.658063,-0.202212,0.596196
12116,5.664598,-0.114017,0.621888
12117,5.595017,-0.202209,0.601212
12118,5.730079,-0.068479,0.619814
12119,9.902023,-0.026993,0.017627
12120,9.881749,-0.026802,0.026802
12121,9.905825,-0.028524,0.008814
12122,9.891886,-0.026898,0.022215
12123,9.880303,-0.032752,0.013401
12124,9.912076,-0.013809,0.025892
12125,9.926523,-0.017216,0.012946
12126,9.907050,-0.020401,0.021759
12127,9.880303,-0.013401,0.032752
12128,9.895467,-0.006905,0.032297
12129,8.479263,-0.116774,0.272277
12130,8.438381,-0.077134,0.292411
12131,8.393415,-0.116776,0.286200
12132,8.452460,-0.166326,0.243299
12133,8.458822,-0.096954,0.282344
12134,8.415898,-0.096955,0.289306
12135,8.409536,-0.166327,0.250260
12136,8.440164,-0.038567,0.297116
12137,8.502696,-0.058387,0.280704
12138,8.373827,-0.058388,0.300528
12139,5.179136,-0.179004,0.638353
12140,5.268799,-0.155612,0.640393
12141,5.154248,-0.146142,0.646631
12142,5.223967,-0.167308,0.639373
12143,5.263427,-0.077806,0.649913
12144,5.159042,-0.221443,0.624020
12145,5.273245,-0.229006,0.612681
12146,9.942700,-0.014195,0.014195
12147,9.921910,-0.008687,0.024982
12148,9.941835,-0.017408,0.007097
12149,9.932305,-0.011441,0.019588
12150,9.916993,-0.011248,0.025437
12151,9.915768,-0.004343,0.027518
12152,9.941835,-0.007097,0.017408
12153,9.860214,-0.016658,0.040423
12154,9.870981,-0.021730,0.033612
12155,9.855239,-0.021621,0.039179
12156,9.853421,-0.008329,0.043848
12157,9.962016,-0.009763,0.009763
12158,9.966773,-0.004882,0.010164
12159,9.966773,-0.010164,0.004882
12160,9.952358,-0.011979,0.011979
12161,8.952903,-0.203789,0.087215
12162,8.917999,-0.220000,0.057631
12163,8.973590,-0.209277,0.043607
12164,8.935451,-0.211894,0.072423
12165,8.920193,-0.223330,0.028815
12166,8.906117,-0.162726,0.161523
12167,8.878985,-0.216909,0.087216
12168,8.892551,-0.189817,0.124369
12169,8.898492,-0.218454,0.072423
12170,8.929510,-0.183257,0.124369
12171,8.862611,-0.227981,0.043608
12172,8.879038,-0.087998,0.216583
12173,8.918045,-0.058136,0.219859
12174,8.862638,-0.043999,0.227818
12175,8.898541,-0.073067,0.218221
12176,8.920216,-0.029068,0.223259
12177,8.952953,-0.087996,0.203443
12178,8.929535,-0.125361,0.182483
12179,8.935499,-0.073066,0.211651
12180,8.892578,-0.125362,0.189053
12181,8.973615,-0.043998,0.209104
12182,7.286449,-0.455706,0.064769
12183,7.236010,-0.456339,0.097410
12184,7.283814,-0.458302,0.032384
12185,7.261230,-0.456022,0.081089
12186,7.204344,-0.465363,0.048705
12187,7.342887,-0.442608,0.097406
12188,7.364678,-0.445097,0.048703
12189,7.314668,-0.449157,0.081088
12190,7.296713,-0.417640,0.190426
12191,7.266361,-0.436989,0.143918
12192,7.319800,-0.430124,0.143916
12193,7.611462,-0.093993,0.407797
12194,7.672806,-0.062492,0.405553
12195,7.602603,-0.046996,0.414273
12196,7.642134,-0.078242,0.406675
12197,7.684282,-0.031246,0.406392
12198,7.626364,-0.183200,0.374032
12199,7.711847,-0.094006,0.394098
12200,7.669106,-0.138603,0.384065
12201,7.692327,-0.078249,0.399825
12202,7.618913,-0.138596,0.390915
12203,7.753199,-0.047003,0.394022
12204,7.731275,-0.399721,0.047316
12205,7.699362,-0.400542,0.071124
12206,7.713517,-0.403476,0.023658
12207,7.715318,-0.400131,0.059220
12208,7.646553,-0.410645,0.035562
12209,7.799735,-0.386820,0.071107
12210,7.797142,-0.390383,0.035554
12211,7.765505,-0.393270,0.059211
12212,7.803183,-0.367087,0.139908
12213,7.751273,-0.383814,0.105516
12214,7.801459,-0.376954,0.105508
12215,8.516578,-0.255934,0.137633
12216,8.508027,-0.217353,0.194724
12217,8.497890,-0.264327,0.126697
12218,8.512303,-0.236643,0.166178
12219,8.466842,-0.216615,0.204522
12220,8.560594,-0.268493,0.092359
12221,8.543362,-0.278811,0.046180
12222,8.538586,-0.262213,0.114996
12223,8.590249,-0.218096,0.174471
12224,8.549138,-0.217724,0.184597
12225,8.575422,-0.243294,0.133415
12226,8.642501,-0.255119,0.092362
12227,8.604266,-0.270397,0.061173
12228,8.666294,-0.259490,0.046181
12229,8.623383,-0.262758,0.076767
12230,8.606915,-0.273381,0.030586
12231,8.582430,-0.269445,0.076766
12232,8.616375,-0.236607,0.133416
12233,8.517368,-0.156618,0.244603
12234,8.512698,-0.186985,0.219663
12235,8.498316,-0.136696,0.258440
12236,8.562388,-0.120769,0.256642
12237,8.576319,-0.169433,0.215556
12238,8.539878,-0.138693,0.250622
12239,8.544258,-0.060385,0.272886
12240,7.439830,-0.315164,0.307996
12241,7.439178,-0.246538,0.365419
12242,7.364807,-0.256731,0.369949
12243,7.328135,-0.296970,0.344600
12244,7.439504,-0.280851,0.336708
12245,7.401992,-0.251635,0.367684
12246,7.346471,-0.276851,0.357275
12247,7.383983,-0.306067,0.326298
12248,7.436237,-0.167932,0.408085
12249,7.326553,-0.223929,0.396311
12250,7.381395,-0.195930,0.402198
12251,7.345680,-0.240330,0.383130
12252,7.437707,-0.207235,0.386752
12253,7.216024,-0.276621,0.378705
12254,7.272079,-0.286796,0.361653
12255,7.271288,-0.250275,0.387508
12256,7.318824,-0.344265,0.299152
12257,7.369115,-0.371887,0.252951
12258,7.323480,-0.320618,0.321876
12259,7.343970,-0.358076,0.276052
12260,7.404473,-0.343525,0.280474
12261,7.258221,-0.358596,0.293979
12262,7.237122,-0.317608,0.336342
12263,7.288523,-0.351431,0.296566
12264,7.332914,-0.394763,0.221689
12265,7.277467,-0.388118,0.242202
12266,5.792778,-0.435586,0.443896
12267,5.804990,-0.480802,0.392851
12268,5.869953,-0.488806,0.373574
12269,5.851621,-0.420976,0.450452
12270,5.798884,-0.458194,0.418373
12271,5.837471,-0.484804,0.383212
12272,5.890209,-0.447586,0.415291
12273,5.674916,-0.463373,0.429323
12274,5.751734,-0.513795,0.356675
12275,5.713325,-0.488584,0.392999
12276,5.778362,-0.497299,0.374763
12277,5.733847,-0.449480,0.436609
12278,5.827486,-0.553781,0.276765
12279,5.848719,-0.521294,0.325170
12280,5.789610,-0.533788,0.316720
12281,5.947690,-0.507316,0.335510
12282,5.964906,-0.545155,0.266324
12283,5.977588,-0.493978,0.349505
12284,5.956298,-0.526236,0.300917
12285,6.033581,-0.540508,0.260939
12286,5.908821,-0.498061,0.354542
12287,5.896196,-0.549468,0.271545
12288,5.728082,-0.601556,0.178948
12289,5.707783,-0.571625,0.263010
12290,5.702917,-0.610182,0.152925
12291,5.717932,-0.586590,0.220979
12292,5.647878,-0.579938,0.255852
12293,5.797912,-0.605234,0.142171
12294,5.781698,-0.614796,0.071085
12295,5.762997,-0.603395,0.160559
12296,5.767635,-0.562703,0.269888
12297,5.812699,-0.579508,0.209468
12298,6.142518,-0.305197,0.504536
12299,6.065382,-0.340621,0.490453
12300,6.167273,-0.346282,0.471214
12301,6.103950,-0.322909,0.497495
12302,6.058330,-0.368855,0.469077
12303,6.091166,-0.213345,0.555218
12304,6.001735,-0.314979,0.514459
12305,6.046450,-0.264162,0.534839
12306,6.033559,-0.327800,0.502456
12307,6.116842,-0.259271,0.529877
12308,5.956099,-0.360672,0.485734
12309,5.821190,-0.103561,0.610952
12310,5.885543,-0.068941,0.610069
12311,5.793338,-0.051780,0.617655
12312,5.853367,-0.086251,0.610510
12313,5.888120,-0.034471,0.611755
12314,5.875353,-0.204172,0.580046
12315,5.945307,-0.103564,0.599686
12316,5.910330,-0.153868,0.589866
12317,5.915425,-0.086253,0.604877
12318,5.848272,-0.153866,0.595499
12319,5.979481,-0.051782,0.600899
12320,5.893937,-0.311085,0.528378
12321,5.803169,-0.296819,0.545668
12322,5.766556,-0.340793,0.523001
12323,5.902201,-0.358725,0.492693
12324,5.848553,-0.303952,0.537023
12325,5.784863,-0.318806,0.534335
12326,5.838510,-0.373580,0.490005
12327,5.748493,-0.236232,0.579594
12328,5.811923,-0.220202,0.579820
12329,5.775831,-0.266525,0.562631
12330,5.884645,-0.257628,0.554212
12331,5.694004,-0.304130,0.550062
12332,5.684972,-0.251849,0.578359
12333,5.755025,-0.160040,0.604534
12334,5.724850,-0.148499,0.609902
12335,5.788108,-0.131800,0.607743
12336,5.751759,-0.198136,0.592064
12337,5.449655,-0.285495,0.582189
12338,5.456239,-0.347771,0.546652
12339,5.545380,-0.369268,0.524749
12340,5.535553,-0.276481,0.579656
12341,5.452947,-0.316633,0.564421
12342,5.500810,-0.358519,0.535701
12343,5.583415,-0.318367,0.550936
12344,5.373254,-0.385750,0.527010
12345,5.325473,-0.344075,0.555990
12346,5.414747,-0.366760,0.536831
12347,5.363673,-0.293948,0.583579
12348,5.467828,-0.459312,0.455707
12349,5.506604,-0.414290,0.490228
12350,5.420541,-0.422531,0.491359
12351,5.441419,-0.591166,0.267776
12352,5.450820,-0.554907,0.335174
12353,5.381837,-0.533273,0.376170
12354,5.368075,-0.591686,0.276892
12355,5.446119,-0.573036,0.301475
12356,5.416328,-0.544090,0.355672
12357,5.338284,-0.562740,0.331089
12358,5.528736,-0.533472,0.358733
12359,5.558354,-0.560861,0.303713
12360,5.489778,-0.544189,0.346953
12361,5.514695,-0.589708,0.258235
12362,5.424832,-0.496292,0.415938
12363,5.498282,-0.496392,0.407220
12364,9.578147,-0.099510,0.042480
12365,9.551121,-0.110184,0.028061
12366,9.585367,-0.102360,0.021240
12367,9.564634,-0.104847,0.035270
12368,9.549682,-0.112222,0.014030
12369,9.560473,-0.079305,0.078753
12370,9.529888,-0.110046,0.042490
12371,9.545180,-0.094676,0.060622
12372,9.540505,-0.110115,0.035275
12373,9.569310,-0.089408,0.060616
12374,9.512871,-0.117366,0.021245
12375,9.529918,-0.042848,0.109901
12376,9.551147,-0.028292,0.110120
12377,9.512886,-0.021424,0.117293
12378,9.540533,-0.035570,0.110010
12379,9.549695,-0.014146,0.112190
12380,9.578175,-0.042837,0.099350
12381,9.569324,-0.061071,0.089051
12382,9.564661,-0.035564,0.104735
12383,9.545195,-0.061077,0.094327
12384,9.585381,-0.021419,0.102280
12385,6.358836,-0.064568,0.563990
12386,6.409745,-0.097006,0.553899
12387,6.367631,-0.032284,0.564884
12388,6.384290,-0.080787,0.558944
12389,6.451889,-0.048503,0.553550
12390,6.290927,-0.096993,0.566527
12391,6.273677,-0.048496,0.572379
12392,6.324881,-0.080781,0.565258
12393,6.323715,-0.191201,0.538466
12394,6.366730,-0.144103,0.546182
12395,6.307321,-0.144097,0.552496
12396,6.491896,-0.508296,0.219114
12397,6.532880,-0.475738,0.273952
12398,6.493520,-0.454777,0.314989
12399,6.432578,-0.508022,0.234791
12400,6.512388,-0.492017,0.246533
12401,6.513200,-0.465257,0.294471
12402,6.433390,-0.481262,0.282729
12403,6.610330,-0.507135,0.187021
12404,6.612588,-0.458568,0.285457
12405,6.611459,-0.482851,0.236239
12406,6.572734,-0.467153,0.279704
12407,6.551113,-0.507715,0.203067
12408,6.552958,-0.423052,0.343613
12409,6.612492,-0.424947,0.328846
12410,6.686263,-0.456470,0.273053
12411,6.722086,-0.480689,0.218240
12412,6.704853,-0.440684,0.292935
12413,6.704175,-0.468580,0.245646
12414,6.777783,-0.466012,0.233188
12415,6.649426,-0.457519,0.279255
12416,6.666208,-0.493912,0.202631
12417,6.493700,-0.532990,0.148700
12418,6.464454,-0.538828,0.138638
12419,6.492798,-0.520643,0.183907
12420,6.553113,-0.538515,0.094975
12421,6.523573,-0.545858,0.047488
12422,6.523407,-0.535752,0.121838
12423,6.581721,-0.522825,0.140998
12424,6.369734,-0.275205,0.495164
12425,6.438946,-0.249067,0.500654
12426,6.450346,-0.193534,0.523378
12427,6.346724,-0.233203,0.516815
12428,6.404340,-0.262136,0.497909
12429,6.444646,-0.221301,0.512016
12430,6.387031,-0.192368,0.530922
12431,6.414095,-0.351538,0.438100
12432,6.496222,-0.276911,0.478640
12433,6.455159,-0.314225,0.458370
12434,6.467584,-0.262989,0.489647
12435,6.391915,-0.313372,0.466632
12436,6.576924,-0.195693,0.507819
12437,6.513635,-0.194614,0.515599
12438,6.536573,-0.236302,0.493230
12439,6.465734,-0.130800,0.540767
12440,6.536486,-0.099507,0.539555
12441,6.437739,-0.113903,0.547333
12442,6.501110,-0.115154,0.540161
12443,6.515260,-0.049753,0.546378
12444,6.458040,-0.162167,0.532073
12445,6.556705,-0.147600,0.523687
12446,6.668962,-0.281270,0.453740
12447,6.596106,-0.300755,0.450861
12448,6.691570,-0.301040,0.436975
12449,6.632534,-0.291012,0.452300
12450,6.604251,-0.346041,0.411549
12451,6.695781,-0.219250,0.483510
12452,6.755086,-0.230580,0.470367
12453,6.682371,-0.250260,0.468625
12454,6.586515,-0.248224,0.479340
12455,6.636352,-0.207472,0.495665
12456,8.313776,-0.313469,0.068477
12457,8.267621,-0.324401,0.045538
12458,8.334008,-0.314162,0.034239
12459,8.290699,-0.318935,0.057008
12460,8.266936,-0.326073,0.022769
12461,8.271255,-0.298364,0.133967
12462,8.223973,-0.326834,0.068478
12463,8.247614,-0.312599,0.101223
12464,8.245797,-0.325617,0.057008
12465,8.292516,-0.305917,0.101222
12466,8.199276,-0.333910,0.034239
12467,8.132433,-0.245679,0.244971
12468,8.157175,-0.316996,0.132391
12469,8.195224,-0.310775,0.133080
12470,8.202625,-0.276468,0.192573
12471,8.144804,-0.281337,0.188681
12472,8.176199,-0.313886,0.132735
12473,8.198924,-0.293622,0.162827
12474,8.167529,-0.261073,0.218772
12475,8.209599,-0.318805,0.100779
12476,8.165876,-0.328991,0.066195
12477,8.236940,-0.287416,0.163270
12478,8.352652,-0.290538,0.122063
12479,8.373003,-0.288580,0.118913
12480,8.333214,-0.302003,0.095270
12481,8.349198,-0.261285,0.176971
12482,8.387427,-0.238581,0.195646
12483,8.350925,-0.275912,0.149517
12484,8.310227,-0.279825,0.155469
12485,8.313817,-0.068602,0.313435
12486,8.352717,-0.122803,0.290215
12487,8.334028,-0.034301,0.314146
12488,8.333267,-0.095702,0.301825
12489,8.373066,-0.119789,0.288208
12490,8.271329,-0.134200,0.298248
12491,8.349261,-0.177983,0.260584
12492,8.310295,-0.156091,0.279416
12493,8.350989,-0.150393,0.275400
12494,8.292573,-0.101401,0.305842
12495,8.387459,-0.196930,0.237452
12496,8.267649,-0.045620,0.324385
12497,8.266950,-0.022810,0.326066
12498,8.290733,-0.057111,0.318910
12499,8.224014,-0.068603,0.326802
12500,8.199296,-0.034301,0.333894
12501,8.245832,-0.057112,0.325593
12502,8.247672,-0.101401,0.312525
12503,8.202671,-0.193087,0.276100
12504,8.195266,-0.133461,0.310605
12505,8.157201,-0.132851,0.316799
12506,8.167552,-0.219383,0.260536
12507,8.198969,-0.163274,0.293352
12508,8.176234,-0.133156,0.313702
12509,8.144817,-0.189265,0.280885
12510,8.209640,-0.101032,0.318703
12511,8.237000,-0.163644,0.287174
12512,8.165889,-0.066426,0.328893
12513,6.707159,-0.149027,0.508247
12514,6.739640,-0.136811,0.507692
12515,6.701470,-0.184139,0.495879
12516,6.652643,-0.099514,0.526452
12517,6.689490,-0.049757,0.526906
12518,6.679901,-0.124271,0.517349
12519,6.614784,-0.147604,0.517136
12520,6.600004,-0.066220,0.537555
12521,6.568245,-0.082863,0.538555
12522,6.605831,-0.033110,0.538915
12523,6.626323,-0.082867,0.532003
12524,6.724700,-0.506380,0.148303
12525,6.723393,-0.493535,0.183272
12526,6.753242,-0.505754,0.138182
12527,6.669265,-0.525387,0.094975
12528,6.639797,-0.516261,0.140998
12529,6.696982,-0.515884,0.121639
12530,6.697801,-0.526374,0.047487
12531,6.611068,-0.536676,0.063209
12532,6.611363,-0.538476,0.031605
12533,6.582090,-0.537596,0.079092
12534,6.640166,-0.531031,0.079092
12535,6.016530,-0.568036,0.199209
12536,6.016283,-0.586815,0.134227
12537,6.059393,-0.551948,0.227382
12538,6.016406,-0.577425,0.166718
12539,6.037825,-0.585077,0.132609
12540,5.930138,-0.593571,0.140533
12541,5.972275,-0.601895,0.070738
12542,5.951206,-0.597733,0.105635
12543,5.994279,-0.594355,0.102483
12544,5.973334,-0.580803,0.169871
12545,5.992965,-0.602004,0.035369
12546,5.903438,-0.610504,0.047136
12547,5.848187,-0.613204,0.070751
12548,5.897068,-0.611973,0.023568
12549,5.875813,-0.611854,0.058943
12550,5.806836,-0.618781,0.035375
12551,5.937857,-0.606199,0.058937
12552,5.889162,-0.603387,0.105642
12553,5.953623,-0.564391,0.225614
12554,5.959264,-0.554773,0.245969
12555,5.985076,-0.566213,0.212412
12556,5.879182,-0.577570,0.210067
12557,5.853334,-0.565676,0.243416
12558,5.916402,-0.570980,0.217841
12559,5.904660,-0.585570,0.175300
12560,5.842015,-0.601421,0.141649
12561,5.845101,-0.607312,0.106200
12562,5.819963,-0.603327,0.141910
12563,5.860598,-0.589495,0.175858
12564,7.186291,-0.452465,0.137171
12565,7.130683,-0.467113,0.108869
12566,7.211151,-0.454402,0.117290
12567,7.158487,-0.459789,0.123020
12568,7.151681,-0.470750,0.054435
12569,7.191231,-0.427043,0.201395
12570,7.243972,-0.422341,0.195910
12571,7.188761,-0.439754,0.169283
12572,7.085714,-0.436184,0.212239
12573,7.108199,-0.451648,0.160554
12574,7.138473,-0.431614,0.206817
12575,6.053369,-0.108478,0.588510
12576,6.121292,-0.072195,0.587388
12577,6.033512,-0.054239,0.595311
12578,6.087330,-0.090337,0.587949
12579,6.128898,-0.036098,0.588825
12580,6.174782,-0.108492,0.576436
12581,6.132974,-0.160918,0.565827
12582,6.148037,-0.090344,0.581912
12583,6.072267,-0.160912,0.571864
12584,6.215605,-0.054246,0.577334
12585,7.071564,-0.481396,0.072367
12586,7.020514,-0.480825,0.108875
12587,7.067838,-0.484524,0.036183
12588,7.046039,-0.481111,0.090621
12589,6.986411,-0.490943,0.054437
12590,7.101123,-0.474254,0.090618
12591,7.053114,-0.458505,0.160557
12592,6.973991,-0.411268,0.281607
12593,7.044020,-0.389292,0.297602
12594,6.945820,-0.403255,0.298046
12595,7.009005,-0.400280,0.289604
12596,7.022040,-0.358392,0.334574
12597,6.959635,-0.444041,0.230333
12598,6.896557,-0.447688,0.239234
12599,6.966813,-0.427654,0.255970
12600,7.064867,-0.412738,0.254920
12601,7.022674,-0.440112,0.221286
12602,6.958685,-0.474975,0.157478
12603,6.989600,-0.477900,0.133176
12604,6.926722,-0.483263,0.142770
12605,6.959160,-0.459508,0.193905
12606,7.412421,-0.085566,0.436023
12607,7.473102,-0.056931,0.432784
12608,7.399445,-0.042783,0.441804
12609,7.442761,-0.071249,0.434403
12610,7.482376,-0.028466,0.433427
12611,7.516048,-0.085576,0.422393
12612,7.476142,-0.126754,0.415239
12613,7.494575,-0.071254,0.427588
12614,7.424329,-0.126749,0.422054
12615,7.554896,-0.042788,0.421570
12616,7.671321,-0.391154,0.124759
12617,7.605294,-0.402777,0.116584
12618,7.685342,-0.395848,0.097942
12619,7.638308,-0.396965,0.120671
12620,7.599519,-0.411762,0.058292
12621,7.708128,-0.362025,0.182918
12622,7.755656,-0.364556,0.161413
12623,7.689725,-0.376589,0.153838
12624,7.612510,-0.353207,0.224025
12625,7.608902,-0.377992,0.170304
12626,7.660319,-0.357616,0.203471
12627,9.801218,-0.053417,0.024354
12628,9.784400,-0.060687,0.016099
12629,9.808163,-0.054346,0.012177
12630,9.792809,-0.057052,0.020227
12631,9.783823,-0.061869,0.008050
12632,9.785155,-0.043476,0.045014
12633,9.768702,-0.061902,0.024362
12634,9.776928,-0.052689,0.034688
12635,9.776551,-0.061294,0.020230
12636,9.793187,-0.048446,0.034684
12637,9.759281,-0.066411,0.012181
12638,9.754446,-0.049385,0.049385
12639,9.764717,-0.047367,0.048002
12640,9.768603,-0.023369,0.062309
12641,9.752153,-0.024693,0.060153
12642,9.759582,-0.048376,0.048694
12643,9.766660,-0.035368,0.055156
12644,9.759232,-0.011684,0.066615
12645,9.766710,-0.054634,0.036182
12646,9.752153,-0.060153,0.024693
12647,9.776879,-0.033422,0.053661
12648,9.807636,-0.040072,0.040695
12649,9.813274,-0.039239,0.039551
12650,9.804427,-0.046744,0.032525
12651,9.801128,-0.023363,0.053883
12652,9.808118,-0.011681,0.054579
12653,9.804382,-0.031717,0.047289
12654,9.793142,-0.033419,0.049448
12655,9.784317,-0.015456,0.060874
12656,9.776460,-0.019413,0.061592
12657,9.783781,-0.007728,0.061963
12658,9.792723,-0.019410,0.057379
12659,8.077066,-0.295485,0.196474
12660,8.111397,-0.322880,0.135231
12661,8.104750,-0.270582,0.220723
12662,8.094232,-0.309183,0.165853
12663,8.134286,-0.319938,0.133811
12664,8.019874,-0.334539,0.140810
12665,8.098205,-0.344528,0.071810
12666,8.059040,-0.339533,0.106310
12667,8.104801,-0.333704,0.103521
12668,8.048470,-0.315012,0.168642
12669,8.136392,-0.342757,0.035905
12670,8.061728,-0.353855,0.047771
12671,8.004969,-0.357923,0.071799
12672,8.072481,-0.353925,0.023886
12673,8.033349,-0.355889,0.059785
12674,7.996522,-0.362639,0.035900
12675,8.079967,-0.349192,0.059791
12676,8.012422,-0.346231,0.106305
12677,8.025377,-0.257376,0.254659
12678,8.024344,-0.287639,0.220179
12679,8.078905,-0.251528,0.249815
12680,8.024861,-0.272508,0.237419
12681,8.050705,-0.291562,0.208327
12682,7.918288,-0.268902,0.264176
12683,7.969981,-0.307094,0.206108
12684,7.944135,-0.287998,0.235142
12685,7.997163,-0.297366,0.213144
12686,7.971833,-0.263139,0.259417
12687,7.994928,-0.320816,0.173459
12688,8.007152,-0.072658,0.357439
12689,8.063189,-0.048339,0.353571
12690,7.997614,-0.036329,0.362397
12691,8.035171,-0.060498,0.355505
12692,8.073211,-0.024169,0.353782
12693,8.024186,-0.142415,0.333200
12694,8.100387,-0.072668,0.344032
12695,8.062287,-0.107541,0.338616
12696,8.081788,-0.060503,0.348802
12697,8.015669,-0.107536,0.345320
12698,8.137483,-0.036334,0.342509
12699,8.112853,-0.136096,0.322291
12700,8.079209,-0.197601,0.294366
12701,8.135027,-0.134474,0.319545
12702,8.096031,-0.166849,0.308329
12703,8.105821,-0.221640,0.269669
12704,8.106620,-0.104382,0.333162
12705,8.051698,-0.170008,0.313783
12706,8.025802,-0.222656,0.285463
12707,8.052505,-0.210128,0.289915
12708,8.025589,-0.240016,0.270061
12709,7.972195,-0.209573,0.304360
12710,7.998191,-0.175994,0.318780
12711,7.998998,-0.216114,0.294912
12712,7.945242,-0.239237,0.284268
12713,7.386399,-0.415087,0.167655
12714,7.405147,-0.388148,0.218075
12715,7.341556,-0.416363,0.179040
12716,7.395773,-0.401617,0.192865
12717,7.387131,-0.380017,0.235513
12718,7.475952,-0.411557,0.144488
12719,7.459207,-0.372023,0.231651
12720,7.467579,-0.391790,0.188070
12721,7.432177,-0.380085,0.224863
12722,7.431176,-0.413322,0.156072
12723,7.449519,-0.343594,0.269824
12724,5.074857,-0.453709,0.487235
12725,5.142707,-0.406806,0.524835
12726,5.037429,-0.425079,0.511558
12727,5.108782,-0.430258,0.506035
12728,5.140836,-0.379121,0.544238
12729,5.214142,-0.411146,0.517999
12730,5.181835,-0.457766,0.474760
12731,5.178425,-0.408976,0.521417
12732,5.112192,-0.479047,0.459378
12733,5.245916,-0.356773,0.551484
12734,5.049923,-0.483153,0.458652
12735,5.024961,-0.477233,0.464982
12736,5.062390,-0.468431,0.472943
12737,5.074784,-0.520936,0.414626
12738,5.037392,-0.528409,0.405537
12739,5.062353,-0.502045,0.436639
12740,5.112156,-0.512661,0.423074
12741,5.049965,-0.563817,0.355035
12742,5.024983,-0.576295,0.333915
12743,5.062374,-0.542377,0.384830
12744,5.062479,-0.570221,0.344049
12745,7.872861,-0.050638,0.379956
12746,7.911661,-0.076117,0.370264
12747,7.883007,-0.025319,0.380224
12748,7.892261,-0.063378,0.375110
12749,7.949868,-0.038059,0.368809
12750,7.814912,-0.076107,0.383772
12751,7.804731,-0.038054,0.388859
12752,7.843886,-0.063373,0.381864
12753,7.833243,-0.149318,0.358931
12754,7.872452,-0.112717,0.364597
12755,7.824077,-0.112712,0.371351
12756,7.926129,-0.190143,0.324323
12757,7.876792,-0.213291,0.317767
12758,7.949162,-0.199858,0.314341
12759,7.901460,-0.201717,0.321045
12760,7.897540,-0.241096,0.290972
12761,7.928728,-0.145904,0.346154
12762,7.976457,-0.144159,0.339677
12763,7.927428,-0.168023,0.335238
12764,7.855017,-0.181304,0.338349
12765,7.880985,-0.147611,0.352542
12766,7.949402,-0.098967,0.359425
12767,7.930531,-0.087542,0.364844
12768,7.978277,-0.085813,0.358432
12769,7.939065,-0.122435,0.352790
12770,7.896491,-0.373378,0.071122
12771,7.862715,-0.381778,0.047330
12772,7.942283,-0.370366,0.035561
12773,7.879603,-0.377578,0.059226
12774,7.877934,-0.381136,0.023665
12775,7.831225,-0.384299,0.059219
12776,7.849837,-0.370233,0.105515
12777,7.937873,-0.362120,0.095092
12778,7.971421,-0.360021,0.083446
12779,7.917182,-0.367749,0.083107
12780,7.911553,-0.350973,0.140423
12781,7.965713,-0.342756,0.140617
12782,7.924713,-0.356547,0.117758
12783,7.857368,-0.359030,0.140166
12784,7.861833,-0.324760,0.206352
12785,7.914682,-0.329199,0.184835
12786,7.890060,-0.296831,0.235264
12787,7.888258,-0.326980,0.195594
12788,7.942332,-0.318146,0.195472
12789,7.913117,-0.340086,0.162629
12790,7.832508,-0.345924,0.173130
12791,8.351640,-0.223321,0.222407
12792,8.325516,-0.251945,0.195729
12793,8.388648,-0.219599,0.218363
12794,8.338578,-0.237633,0.209068
12795,8.337357,-0.256615,0.186350
12796,8.277604,-0.230673,0.230402
12797,8.275191,-0.268823,0.185156
12798,8.276397,-0.249748,0.207779
12799,8.300354,-0.260384,0.190443
12800,8.314622,-0.226997,0.226404
12801,8.273223,-0.283594,0.159562
12802,8.227781,-0.261955,0.206041
12803,8.205027,-0.238217,0.237727
12804,8.215203,-0.269212,0.199307
12805,8.216404,-0.250086,0.221884
12806,8.168730,-0.241948,0.241349
12807,8.251486,-0.265389,0.195599
12808,8.241315,-0.234445,0.234064
12809,8.325553,-0.196478,0.251353
12810,8.337407,-0.187230,0.255969
12811,8.338596,-0.209900,0.236880
12812,8.275230,-0.185419,0.268635
12813,8.273280,-0.159809,0.283441
12814,8.300391,-0.190948,0.259994
12815,8.276417,-0.208046,0.249518
12816,8.227811,-0.206472,0.261610
12817,8.216419,-0.222344,0.249669
12818,8.215241,-0.199780,0.268855
12819,8.251520,-0.195945,0.265123
12820,7.101885,-0.354510,0.328000
12821,7.108116,-0.302439,0.375601
12822,7.072952,-0.371901,0.312801
12823,7.105001,-0.328475,0.351801
12824,7.054088,-0.314966,0.373574
12825,7.152568,-0.367044,0.304306
12826,7.119141,-0.401614,0.258273
12827,7.127226,-0.360777,0.316153
12828,7.162070,-0.289530,0.377153
12829,7.184296,-0.321832,0.341506
12830,7.201065,-0.387313,0.267731
12831,7.229643,-0.372955,0.280855
12832,7.196148,-0.407178,0.234563
12833,7.176816,-0.377178,0.286019
12834,6.303096,-0.369667,0.438251
12835,6.310808,-0.314613,0.478430
12836,6.258947,-0.294659,0.497223
12837,6.247563,-0.378517,0.438072
12838,6.306952,-0.342140,0.458340
12839,6.284877,-0.304636,0.487826
12840,6.225488,-0.341013,0.467558
12841,6.340271,-0.294909,0.486797
12842,6.358596,-0.360603,0.438175
12843,6.291331,-0.242930,0.517844
12844,6.535484,-0.318223,0.446910
12845,6.513391,-0.372335,0.406152
12846,6.565795,-0.309489,0.448886
12847,6.524437,-0.345279,0.426531
12848,6.562894,-0.381831,0.389194
12849,6.515853,-0.297567,0.462775
12850,6.463743,-0.361937,0.422126
12851,6.327578,-0.423505,0.382680
12852,6.305664,-0.439793,0.366713
12853,6.315337,-0.396586,0.410465
12854,6.395071,-0.439903,0.352518
12855,6.384166,-0.473825,0.301493
12856,6.361324,-0.431704,0.367599
12857,6.404583,-0.395720,0.395309
12858,6.467589,-0.423978,0.359637
12859,6.490490,-0.398157,0.382894
12860,6.480554,-0.439378,0.337313
12861,6.431330,-0.431940,0.356078
12862,7.621461,-0.278446,0.310438
12863,7.560941,-0.291046,0.309663
12864,7.526477,-0.336026,0.267478
12865,7.616986,-0.315827,0.267232
12866,7.591201,-0.284746,0.310051
12867,7.543709,-0.313536,0.288570
12868,7.569493,-0.344616,0.245751
12869,7.533903,-0.252834,0.346001
12870,7.580133,-0.218017,0.360016
12871,7.547422,-0.271940,0.327832
12872,7.623913,-0.230823,0.342235
12873,7.483153,-0.325595,0.287737
12874,7.486866,-0.283999,0.326999
12875,5.649118,-0.372413,0.512833
12876,5.736352,-0.384551,0.494861
12877,5.635285,-0.319940,0.544978
12878,5.692735,-0.378482,0.503847
12879,5.751454,-0.362672,0.508931
12880,5.764565,-0.410069,0.469379
12881,5.662017,-0.417893,0.471078
12882,5.697390,-0.541469,0.322039
12883,5.632185,-0.533815,0.344182
12884,5.702587,-0.556547,0.292525
12885,5.664787,-0.537642,0.333110
12886,5.610078,-0.561033,0.296438
12887,5.724562,-0.527632,0.339357
12888,5.653550,-0.498594,0.386752
12889,5.588815,-0.403015,0.495110
12890,5.567098,-0.386142,0.509930
12891,5.618967,-0.387714,0.503971
12892,5.571403,-0.461643,0.442803
12893,5.519615,-0.460478,0.449255
12894,5.580109,-0.432329,0.468957
12895,5.623159,-0.462508,0.436063
12896,5.577621,-0.511319,0.383677
12897,5.604903,-0.522567,0.363929
12898,5.553179,-0.522395,0.371205
12899,5.574512,-0.486481,0.413240
12900,5.463584,-0.643225,0.074155
12901,5.395143,-0.649996,0.049428
12902,5.488532,-0.643612,0.037077
12903,5.429364,-0.646610,0.061792
12904,5.390834,-0.651185,0.024714
12905,5.413115,-0.633942,0.147338
12906,5.335841,-0.651192,0.074177
12907,5.374478,-0.642567,0.110758
12908,5.365492,-0.650594,0.061803
12909,5.438350,-0.638583,0.110746
12910,5.296948,-0.655312,0.037089
12911,5.322590,-0.639536,0.146972
12912,5.354167,-0.617022,0.218070
12913,5.299911,-0.640796,0.146838
12914,5.338378,-0.628279,0.182521
12915,5.324449,-0.604615,0.252039
12916,5.329215,-0.645364,0.110575
12917,5.383641,-0.625482,0.182704
12918,5.505468,-0.630626,0.133821
12919,5.528565,-0.629656,0.130347
12920,5.484526,-0.636926,0.103988
12921,5.500727,-0.613608,0.198830
12922,5.544349,-0.600930,0.223762
12923,5.503098,-0.622117,0.166326
12924,5.456921,-0.623775,0.173084
12925,5.432166,-0.608076,0.228580
12926,5.393166,-0.612549,0.223325
12927,5.436792,-0.599621,0.248178
12928,5.466447,-0.610842,0.213705
12929,8.726448,-0.252155,0.055529
12930,8.682009,-0.246348,0.098116
12931,8.708268,-0.258008,0.027765
12932,8.704229,-0.249252,0.076823
12933,8.662255,-0.250734,0.095239
12934,8.760852,-0.228317,0.108395
12935,8.675837,-0.224755,0.142417
12936,8.718345,-0.226536,0.125406
12937,8.678923,-0.235552,0.120266
12938,8.743650,-0.240236,0.081962
12939,8.633043,-0.221426,0.158444
12940,8.766587,-0.249111,0.036922
12941,8.768204,-0.250201,0.018461
12942,8.746518,-0.250633,0.046226
12943,8.804492,-0.239450,0.055531
12944,8.825365,-0.239251,0.027766
12945,8.785540,-0.244281,0.046227
12946,8.782672,-0.233884,0.081963
12947,8.834036,-0.198336,0.136907
12948,8.839616,-0.220749,0.094575
12949,8.870076,-0.180531,0.149215
12950,8.836826,-0.209543,0.115741
12951,8.859301,-0.218829,0.090896
12952,8.822054,-0.230100,0.075053
12953,8.797444,-0.213327,0.122651
12954,8.851248,-0.088205,0.221356
12955,8.851737,-0.128563,0.200472
12956,8.865143,-0.088101,0.218970
12957,8.851492,-0.108384,0.210914
12958,8.878927,-0.145644,0.180997
12959,8.821605,-0.045142,0.238826
12960,8.833921,-0.022571,0.238939
12961,8.836426,-0.066674,0.230091
12962,8.795684,-0.088801,0.230713
12963,8.823710,-0.108682,0.215592
12964,8.808644,-0.066971,0.234769
12965,8.743557,-0.045147,0.251468
12966,8.777924,-0.030040,0.248212
12967,8.716822,-0.022574,0.257665
12968,8.760741,-0.037594,0.249840
12969,8.773872,-0.015020,0.249751
12970,8.799765,-0.037591,0.243519
12971,8.769620,-0.066974,0.241091
12972,8.812344,-0.139120,0.201042
12973,8.819857,-0.161424,0.181976
12974,8.832040,-0.133841,0.200757
12975,8.816101,-0.150272,0.191509
12976,8.862987,-0.162075,0.171749
12977,8.764998,-0.125500,0.218596
12978,8.780341,-0.107150,0.224655
12979,8.788671,-0.132310,0.209819
12980,8.733422,-0.159400,0.201616
12981,8.776640,-0.160412,0.191796
12982,8.749210,-0.142450,0.210106
12983,8.741232,-0.085927,0.241008
12984,8.742394,-0.065537,0.246238
12985,8.753115,-0.105713,0.229802
12986,8.713980,-0.084291,0.246131
12987,8.702034,-0.042145,0.254996
12988,8.727606,-0.085109,0.243570
12989,8.723701,-0.121845,0.223873
12990,9.295063,-0.034782,0.158794
12991,9.325391,-0.023129,0.155302
12992,9.279439,-0.017391,0.163484
12993,9.310227,-0.028955,0.157048
12994,9.326487,-0.011564,0.155949
12995,9.324875,-0.067876,0.141689
12996,9.355916,-0.034782,0.147346
12997,9.340396,-0.051329,0.144517
12998,9.340654,-0.028956,0.151324
12999,9.309969,-0.051329,0.150241
13000,9.370753,-0.017391,0.146590
13001,9.242253,-0.158152,0.067768
13002,9.206535,-0.172703,0.044751
13003,9.253034,-0.163162,0.033884
13004,9.224394,-0.165427,0.056259
13005,9.203917,-0.176000,0.022375
13006,9.216092,-0.124452,0.125366
13007,9.177175,-0.170593,0.067777
13008,9.196633,-0.147522,0.096571
13009,9.191855,-0.171648,0.056264
13010,9.229172,-0.141302,0.096567
13011,9.155305,-0.180867,0.033888
13012,9.064166,-0.144468,0.142562
13013,9.101268,-0.181044,0.076919
13014,9.140068,-0.164173,0.095630
13015,9.140153,-0.134557,0.134060
13016,9.082717,-0.162756,0.109740
13017,9.120668,-0.172609,0.086274
13018,9.140110,-0.149365,0.114845
13019,9.102159,-0.139512,0.138311
13020,9.158621,-0.167383,0.081703
13021,9.117352,-0.186092,0.038460
13022,9.178122,-0.129504,0.129713
13023,9.206498,-0.044368,0.172808
13024,9.242211,-0.067175,0.158413
13025,9.203898,-0.022184,0.176052
13026,9.224355,-0.055771,0.165611
13027,9.253013,-0.033587,0.163293
13028,9.177131,-0.067184,0.170836
13029,9.155283,-0.033592,0.180988
13030,9.191814,-0.055776,0.171822
13031,9.229151,-0.095814,0.141889
13032,9.196611,-0.095818,0.148101
13033,9.140088,-0.096046,0.163925
13034,9.101351,-0.078157,0.180496
13035,9.140120,-0.115301,0.148993
13036,9.120719,-0.087101,0.172211
13037,9.082758,-0.111312,0.161529
13038,9.158609,-0.081615,0.167381
13039,9.117393,-0.039078,0.185818
13040,8.695530,-0.205371,0.164244
13041,8.662107,-0.189983,0.189274
13042,8.685684,-0.215063,0.153330
13043,8.678819,-0.197677,0.176759
13044,8.626178,-0.204039,0.181872
13045,8.748162,-0.198914,0.159054
13046,8.754507,-0.213616,0.133725
13047,8.721846,-0.202142,0.161649
13048,8.697765,-0.174691,0.195445
13049,8.740792,-0.179157,0.180335
13050,8.800882,-0.187046,0.160236
13051,8.810369,-0.174235,0.171106
13052,8.817459,-0.192691,0.148571
13053,8.774522,-0.192980,0.159645
13054,9.700277,-0.078996,0.022676
13055,9.692676,-0.082499,0.015082
13056,9.725069,-0.074958,0.011338
13057,9.696476,-0.080747,0.018879
13058,9.704751,-0.080483,0.007541
13059,9.649570,-0.082218,0.043960
13060,9.663855,-0.087283,0.022635
13061,9.656713,-0.084750,0.033297
13062,9.678265,-0.084891,0.018858
13063,9.674923,-0.080607,0.033318
13064,9.670432,-0.087289,0.011317
13065,9.605260,-0.081671,0.062049
13066,9.615962,-0.070794,0.071089
13067,9.598557,-0.062950,0.082735
13068,9.582866,-0.080488,0.070401
13069,9.610611,-0.076232,0.066569
13070,9.607260,-0.066872,0.076912
13071,9.579515,-0.071128,0.080744
13072,9.643691,-0.066427,0.067165
13073,9.646631,-0.074323,0.055563
13074,9.629826,-0.068611,0.069127
13075,9.627415,-0.081944,0.053005
13076,9.636148,-0.045153,0.084825
13077,9.617353,-0.054052,0.083780
13078,9.639920,-0.055790,0.075995
13079,9.670151,-0.047610,0.074941
13080,9.673084,-0.032805,0.081835
13081,9.657149,-0.023247,0.088619
13082,9.653150,-0.046382,0.079883
13083,9.671617,-0.040207,0.078388
13084,9.665116,-0.028026,0.085227
13085,9.646649,-0.034200,0.086722
13086,9.703988,-0.049657,0.064414
13087,9.691454,-0.026175,0.079965
13088,9.697721,-0.037916,0.072190
13089,9.682269,-0.029490,0.080900
13090,9.687070,-0.048633,0.069677
13091,9.667079,-0.011624,0.087957
13092,9.684232,-0.013087,0.083630
13093,9.515798,-0.091199,0.079106
13094,9.510467,-0.108308,0.055750
13095,9.538135,-0.085252,0.078929
13096,9.513132,-0.099753,0.067428
13097,9.520178,-0.109177,0.049120
13098,9.470996,-0.102612,0.079041
13099,9.484709,-0.119853,0.041681
13100,9.477853,-0.111232,0.060361
13101,9.497588,-0.114080,0.048716
13102,9.493397,-0.096905,0.079074
13103,9.490282,-0.122270,0.020840
13104,9.451990,-0.130349,0.027608
13105,9.429661,-0.131054,0.041695
13106,9.448437,-0.132467,0.013804
13107,9.440826,-0.130702,0.034651
13108,9.407626,-0.138444,0.020847
13109,9.468349,-0.125101,0.034644
13110,9.450329,-0.116833,0.060368
13111,8.990526,-0.186103,0.108442
13112,8.985162,-0.153682,0.152127
13113,8.971714,-0.194946,0.097829
13114,8.987844,-0.169892,0.130284
13115,8.945639,-0.158204,0.156825
13116,9.031793,-0.193804,0.076923
13117,9.013035,-0.204285,0.038462
13118,9.011160,-0.189954,0.092683
13119,9.024664,-0.149075,0.147344
13120,9.047980,-0.169136,0.109743
13121,9.066200,-0.196223,0.050822
13122,9.083734,-0.188633,0.063871
13123,9.066251,-0.199433,0.025411
13124,9.048996,-0.195014,0.063873
13125,9.066275,-0.051623,0.196001
13126,9.066288,-0.025811,0.199322
13127,9.083813,-0.064890,0.188249
13128,9.031880,-0.078161,0.193292
13129,9.013079,-0.039081,0.204028
13130,9.049077,-0.064892,0.194646
13131,9.048023,-0.111315,0.167927
13132,8.990586,-0.109746,0.185323
13133,8.987874,-0.131714,0.168725
13134,8.971770,-0.098871,0.194383
13135,9.011233,-0.093954,0.189307
13136,9.404106,-0.027572,0.139678
13137,9.434807,-0.018352,0.135291
13138,9.394848,-0.013786,0.142757
13139,9.419456,-0.022962,0.137485
13140,9.439846,-0.009176,0.134938
13141,9.421579,-0.054080,0.128114
13142,9.459217,-0.027579,0.128930
13143,9.440398,-0.040830,0.128522
13144,9.447012,-0.022965,0.132111
13145,9.412842,-0.040826,0.133896
13146,9.477535,-0.013790,0.126808
13147,7.531341,-0.175694,0.391342
13148,7.553220,-0.119413,0.409071
13149,7.483789,-0.171813,0.399713
13150,7.542280,-0.147553,0.400206
13151,7.534634,-0.102494,0.415732
13152,7.582341,-0.106703,0.408434
13153,7.578852,-0.179447,0.382687
13154,7.752471,-0.113120,0.383366
13155,7.729842,-0.166379,0.366745
13156,7.783691,-0.094613,0.383569
13157,7.741156,-0.139749,0.375056
13158,7.781542,-0.157848,0.362838
13159,7.732159,-0.103563,0.388732
13160,7.678103,-0.174790,0.370389
13161,7.501704,-0.225699,0.369245
13162,7.470441,-0.236119,0.367332
13163,7.516522,-0.200696,0.380293
13164,7.517803,-0.239266,0.357623
13165,6.938129,-0.138160,0.483489
13166,6.998988,-0.083158,0.488533
13167,6.911615,-0.131380,0.488549
13168,6.968558,-0.110659,0.486011
13169,6.975648,-0.041579,0.494797
13170,6.929349,-0.203513,0.460922
13171,6.871870,-0.222711,0.459073
13172,6.933739,-0.170836,0.472205
13173,7.043962,-0.163937,0.461952
13174,7.021475,-0.123547,0.475243
13175,6.986656,-0.183725,0.461437
13176,7.197203,-0.145421,0.448462
13177,7.146118,-0.151765,0.453000
13178,7.130609,-0.222621,0.424786
13179,7.206613,-0.211021,0.413584
13180,7.171661,-0.148593,0.450731
13181,7.138364,-0.187193,0.438893
13182,7.173316,-0.249621,0.401745
13183,7.109169,-0.083161,0.475018
13184,7.140924,-0.041580,0.474703
13185,7.127644,-0.117463,0.464009
13186,7.184941,-0.072711,0.461425
13187,7.087286,-0.193279,0.443369
13188,7.076565,-0.123549,0.468485
13189,7.057078,-0.055353,0.485395
13190,7.028033,-0.069255,0.486964
13191,7.060595,-0.027677,0.486524
13192,7.083123,-0.069257,0.480207
13193,7.087466,-0.259477,0.409516
13194,7.109038,-0.241049,0.417151
13195,7.097791,-0.280958,0.392558
13196,7.023071,-0.250200,0.424335
13197,7.033517,-0.207068,0.443144
13198,7.055269,-0.254839,0.416925
13199,7.011565,-0.288846,0.397941
13200,6.953528,-0.247463,0.435535
13201,6.930586,-0.267086,0.426419
13202,6.941439,-0.225488,0.448229
13203,6.988300,-0.248831,0.429935
13204,7.432008,-0.435701,0.073269
13205,7.387343,-0.432914,0.113556
13206,7.409239,-0.441643,0.036635
13207,7.409675,-0.434307,0.093412
13208,7.365115,-0.437761,0.105481
13209,7.386871,-0.424000,0.140605
13210,7.453980,-0.423629,0.108879
13211,7.510322,-0.365786,0.229153
13212,7.544593,-0.384877,0.185462
13213,7.518399,-0.350906,0.248315
13214,7.527457,-0.375331,0.207307
13215,7.578551,-0.369042,0.204743
13216,7.484764,-0.368905,0.230402
13217,7.510272,-0.398217,0.164975
13218,7.486098,-0.432080,0.048772
13219,7.488874,-0.433075,0.024386
13220,7.459053,-0.433890,0.061021
13221,7.535635,-0.422102,0.073271
13222,7.564689,-0.421425,0.036636
13223,7.510866,-0.427091,0.061022
13224,7.505793,-0.416830,0.108880
13225,7.562194,-0.405816,0.126147
13226,7.553394,-0.395346,0.155805
13227,7.583744,-0.404296,0.121365
13228,7.548915,-0.413959,0.099709
13229,9.727815,-0.026179,0.071344
13230,9.737621,-0.049052,0.055045
13231,9.738838,-0.013090,0.071132
13232,9.732718,-0.037616,0.063194
13233,9.746034,-0.049218,0.052215
13234,9.728619,-0.066855,0.035727
13235,9.716304,-0.058256,0.050071
13236,9.733120,-0.057953,0.045386
13237,9.715902,-0.037918,0.067879
13238,9.739240,-0.068888,0.017863
13239,9.702272,-0.072080,0.038527
13240,9.677193,-0.067400,0.055391
13241,9.701274,-0.075538,0.030602
13242,9.689732,-0.069740,0.046959
13243,9.663382,-0.074809,0.049676
13244,9.715446,-0.069468,0.037127
13245,9.690591,-0.058528,0.059903
13246,9.711123,-0.017362,0.077851
13247,9.713975,-0.008681,0.078159
13248,9.719469,-0.021771,0.074597
13249,9.701288,-0.021768,0.078908
13250,9.663840,-0.060897,0.066458
13251,9.670516,-0.064148,0.060925
13252,9.653765,-0.063662,0.066811
13253,9.666995,-0.054253,0.070699
13254,9.266977,-0.135907,0.098056
13255,9.303324,-0.127570,0.098230
13256,9.296030,-0.117621,0.111867
13257,9.241534,-0.130179,0.111711
13258,9.285150,-0.131738,0.098143
13259,9.299677,-0.122595,0.105049
13260,9.256061,-0.121036,0.118617
13261,9.316965,-0.143320,0.067824
13262,9.346698,-0.128127,0.083742
13263,9.331831,-0.135723,0.075783
13264,9.325011,-0.127849,0.090986
13265,9.291971,-0.139613,0.082940
13266,9.375873,-0.110404,0.098003
13267,9.335952,-0.114012,0.104935
13268,9.361286,-0.119266,0.090873
13269,9.382469,-0.136781,0.052320
13270,9.360649,-0.139014,0.057700
13271,9.351950,-0.148111,0.034739
13272,9.384030,-0.141308,0.026160
13273,9.371559,-0.137897,0.055010
13274,9.356299,-0.143563,0.046219
13275,9.368770,-0.146973,0.017369
13276,9.353673,-0.133570,0.070721
13277,9.379171,-0.123592,0.075162
13278,9.334457,-0.145715,0.051281
13279,9.267179,-0.153217,0.067907
13280,9.254716,-0.155684,0.067838
13281,9.267078,-0.144562,0.082982
13282,9.291094,-0.159541,0.034735
13283,9.277455,-0.163857,0.017368
13284,9.279137,-0.156379,0.051321
13285,9.304029,-0.151430,0.051280
13286,9.322745,-0.155797,0.023102
13287,9.325163,-0.156196,0.011551
13288,9.306919,-0.157669,0.028919
13289,9.337347,-0.151954,0.028920
13290,9.423466,-0.106635,0.088628
13291,9.423477,-0.091321,0.104332
13292,9.399371,-0.084258,0.115823
13293,9.399669,-0.108520,0.093315
13294,9.423472,-0.098978,0.096480
13295,9.411424,-0.087790,0.110078
13296,9.387622,-0.097331,0.106913
13297,9.447108,-0.080925,0.106981
13298,9.459052,-0.091768,0.093011
13299,9.435293,-0.086123,0.105656
13300,9.447231,-0.104623,0.083835
13301,9.410475,-0.069169,0.121968
13302,9.434344,-0.067503,0.117547
13303,9.412231,-0.126289,0.062316
13304,9.397350,-0.131535,0.057318
13305,9.417848,-0.116462,0.075472
13306,9.420946,-0.128671,0.052005
13307,9.270903,-0.097528,0.135416
13308,9.269793,-0.067557,0.152858
13309,9.243497,-0.110990,0.130391
13310,9.270348,-0.082543,0.144137
13311,9.256002,-0.067366,0.155635
13312,9.282428,-0.051170,0.155826
13313,9.297889,-0.082702,0.138553
13314,9.377894,-0.041474,0.141346
13315,9.373250,-0.061028,0.135010
13316,9.391000,-0.034523,0.140512
13317,9.375572,-0.051251,0.138178
13318,9.397415,-0.057554,0.131562
13319,9.366905,-0.038128,0.144346
13320,9.349063,-0.064452,0.138350
13321,9.306054,-0.102458,0.123549
13322,9.301042,-0.110039,0.117708
13323,9.288479,-0.099993,0.129483
13324,9.350913,-0.090882,0.122183
13325,9.363393,-0.100643,0.110093
13326,9.328484,-0.096670,0.122866
13327,9.337894,-0.079379,0.131936
13328,9.374643,-0.078984,0.125018
13329,9.373946,-0.070006,0.130014
13330,9.387007,-0.081621,0.120421
13331,9.362778,-0.084933,0.123600
13332,9.464456,-0.055869,0.118296
13333,9.455782,-0.068397,0.112638
13334,9.461836,-0.041724,0.123613
13335,9.485888,-0.056986,0.113105
13336,9.478442,-0.079799,0.096073
13337,9.475172,-0.056427,0.115701
13338,9.490871,-0.028493,0.118896
13339,9.511026,-0.065897,0.102302
13340,9.520472,-0.054373,0.106101
13341,9.513412,-0.078548,0.090704
13342,9.498457,-0.061442,0.107704
13343,7.235808,-0.058273,0.462956
13344,7.286134,-0.038816,0.458659
13345,7.204243,-0.029137,0.468672
13346,7.260971,-0.048545,0.460808
13347,7.283656,-0.019408,0.459778
13348,7.298002,-0.115616,0.444068
13349,7.342695,-0.058271,0.449427
13350,7.320348,-0.086944,0.446748
13351,7.314414,-0.048543,0.454043
13352,7.266905,-0.086945,0.453512
13353,7.364582,-0.029136,0.448506
13354,7.374304,-0.095743,0.438889
13355,7.367256,-0.142113,0.427094
13356,7.393362,-0.090655,0.437456
13357,7.370780,-0.118928,0.432992
13358,7.401746,-0.155023,0.417590
13359,7.358500,-0.077007,0.444158
13360,7.332629,-0.128864,0.435581
13361,7.230837,-0.135248,0.447276
13362,7.214020,-0.140334,0.447869
13363,7.233322,-0.096761,0.455116
13364,7.258025,-0.199613,0.418697
13365,7.237024,-0.238117,0.398701
13366,7.244431,-0.167430,0.432987
13367,7.278013,-0.157615,0.431383
13368,7.317462,-0.189054,0.415394
13369,7.342359,-0.165583,0.421244
13370,7.322008,-0.206491,0.405852
13371,7.287744,-0.194333,0.417045
13372,8.662690,-0.054483,0.262588
13373,8.687218,-0.092090,0.247799
13374,8.676388,-0.027242,0.263225
13375,8.674954,-0.073287,0.255194
13376,8.700599,-0.088191,0.246965
13377,8.633636,-0.106812,0.250897
13378,8.683893,-0.134288,0.228259
13379,8.658764,-0.120550,0.239578
13380,8.685555,-0.113189,0.238029
13381,8.648163,-0.080648,0.256743
13382,8.708657,-0.146844,0.214937
13383,8.653287,-0.164789,0.213327
13384,8.613198,-0.167400,0.219147
13385,8.657697,-0.177386,0.201300
13386,8.633242,-0.166095,0.216237
13387,8.601724,-0.192748,0.196809
13388,8.668590,-0.149538,0.220793
13389,8.623417,-0.137106,0.235022
13390,8.617369,-0.036241,0.272792
13391,8.613467,-0.018120,0.274579
13392,8.640029,-0.045362,0.267690
13393,8.580741,-0.054488,0.275504
13394,8.553435,-0.027244,0.282317
13395,8.599055,-0.045364,0.274148
13396,8.607188,-0.080650,0.263201
13397,8.586157,-0.115923,0.254877
13398,8.599678,-0.141662,0.237012
13399,8.574273,-0.118346,0.255760
13400,8.583449,-0.085205,0.265190
13401,6.207465,-0.202359,0.547075
13402,6.203201,-0.268083,0.518456
13403,6.265590,-0.196780,0.542770
13404,6.205333,-0.235221,0.532766
13405,6.231074,-0.281371,0.507840
13406,6.172860,-0.286640,0.511496
13407,6.149315,-0.207852,0.551146
13408,5.959880,-0.279041,0.539262
13409,5.983285,-0.208852,0.567886
13410,5.926909,-0.295063,0.533820
13411,5.971582,-0.243946,0.553574
13412,5.929319,-0.206512,0.573966
13413,5.980808,-0.297010,0.526860
13414,6.037225,-0.211098,0.561552
13415,6.224598,-0.136770,0.565262
13416,6.257762,-0.116881,0.565894
13417,6.216031,-0.169564,0.556168
13418,6.199690,-0.122631,0.570849
13419,5.994182,-0.141140,0.587333
13420,5.988733,-0.174996,0.577609
13421,5.969744,-0.122352,0.593510
13422,6.023775,-0.124809,0.587922
13423,9.602000,-0.093817,0.043168
13424,9.590073,-0.096664,0.042824
13425,9.603630,-0.087744,0.052608
13426,9.621690,-0.096542,0.022642
13427,9.607139,-0.100876,0.011321
13428,9.611845,-0.095180,0.032905
13429,9.635630,-0.089380,0.033301
13430,9.640252,-0.094032,0.015044
13431,9.652054,-0.090658,0.018839
13432,9.639461,-0.094793,0.007522
13433,9.630971,-0.095287,0.018843
13434,7.789765,-0.218199,0.328747
13435,7.832858,-0.236464,0.308489
13436,7.811504,-0.183758,0.343839
13437,7.811312,-0.227331,0.318618
13438,7.854825,-0.224877,0.313128
13439,7.744421,-0.279443,0.287087
13440,7.831368,-0.274242,0.275701
13441,7.787895,-0.276842,0.281394
13442,7.832113,-0.255353,0.292095
13443,7.767093,-0.248821,0.307917
13444,7.874828,-0.271572,0.269939
13445,7.735402,-0.206775,0.344651
13446,7.732622,-0.186577,0.355698
13447,7.762584,-0.212487,0.336699
13448,7.686063,-0.234210,0.334676
13449,7.656213,-0.208705,0.354354
13450,7.710733,-0.220493,0.339664
13451,7.715242,-0.256826,0.310882
13452,7.678834,-0.318476,0.257296
13453,7.662470,-0.278951,0.302638
13454,7.645672,-0.335842,0.240660
13455,7.670652,-0.298714,0.279967
13456,7.641966,-0.278699,0.306538
13457,7.674266,-0.256580,0.318657
13458,7.711628,-0.298960,0.272191
13459,5.298409,-0.538377,0.377146
13460,5.248797,-0.527729,0.396014
13461,5.296570,-0.565292,0.331577
13462,5.273603,-0.533053,0.386580
13463,5.235590,-0.540437,0.378980
13464,5.301195,-0.470681,0.458547
13465,5.225393,-0.488057,0.445513
13466,5.263294,-0.479369,0.452030
13467,5.237095,-0.507893,0.420764
13468,5.299802,-0.504529,0.417847
13469,5.187460,-0.496221,0.438518
13470,5.243249,-0.432095,0.498915
13471,5.289879,-0.391559,0.528519
13472,5.228696,-0.421621,0.508457
13473,5.266564,-0.411827,0.513717
13474,5.283785,-0.346980,0.556744
13475,5.234321,-0.460076,0.472214
13476,5.295537,-0.431120,0.493533
13477,5.355050,-0.513673,0.405042
13478,5.368443,-0.523473,0.390606
13479,5.326729,-0.526025,0.391094
13480,5.384530,-0.465213,0.457340
13481,5.426179,-0.462263,0.456524
13482,5.369790,-0.489443,0.431191
13483,5.342862,-0.467947,0.457944
13484,5.349341,-0.415605,0.505581
13485,5.319610,-0.403582,0.517050
13486,5.361297,-0.400677,0.516295
13487,5.366935,-0.440409,0.481461
13488,5.465370,-0.078216,0.642627
13489,5.517913,-0.143201,0.627670
13490,5.489425,-0.039108,0.643313
13491,5.491641,-0.110708,0.635149
13492,5.543248,-0.140076,0.626485
13493,5.416622,-0.155292,0.631816
13494,5.519274,-0.212485,0.607628
13495,5.467948,-0.183889,0.619722
13496,5.518593,-0.177843,0.617649
13497,5.440996,-0.116754,0.637221
13498,5.570362,-0.239976,0.592376
13499,5.438862,-0.243295,0.601859
13500,5.347432,-0.230538,0.612883
13501,5.444258,-0.264395,0.592024
13502,5.393147,-0.236917,0.607371
13503,5.312562,-0.266469,0.598926
13504,5.479068,-0.227890,0.604744
13505,5.382027,-0.192915,0.622349
13506,5.396339,-0.052131,0.649713
13507,5.391432,-0.026066,0.651043
13508,5.430855,-0.065174,0.646170
13509,5.337623,-0.078242,0.650619
13510,5.297839,-0.039121,0.655026
13511,5.366981,-0.065187,0.650166
13512,5.377123,-0.116767,0.641217
13513,5.318151,-0.155570,0.637755
13514,5.332792,-0.193054,0.625319
13515,5.293475,-0.155591,0.639074
13516,5.327887,-0.116906,0.644187
13517,9.635783,-0.015453,0.094929
13518,9.637226,-0.007727,0.095241
13519,9.646466,-0.019350,0.091774
13520,9.614977,-0.023247,0.097847
13521,9.603782,-0.011624,0.101528
13522,9.625380,-0.019350,0.096388
13523,9.625563,-0.034200,0.091336
13524,9.597535,-0.043787,0.094552
13525,9.598046,-0.053369,0.088643
13526,9.587855,-0.043312,0.096951
13527,9.606256,-0.033517,0.096199
13528,7.823009,-0.311271,0.235025
13529,7.827188,-0.292756,0.255363
13530,7.842421,-0.318015,0.220689
13531,7.775039,-0.330901,0.218554
13532,7.759730,-0.305172,0.252820
13533,7.799024,-0.321086,0.226790
13534,7.789111,-0.348994,0.179231
13535,7.720866,-0.338419,0.220384
13536,7.714497,-0.350222,0.201651
13537,7.699850,-0.328448,0.238840
13538,7.747953,-0.334660,0.219469

** Skin PodGeom_Struct0
*ELEMENT, TYPE=S8, ELSET=ESkin_PodGeom_Struct0_0
2,1,2,3,4,5,6,7,8
3,9,10,3,2,11,12,6,13
4,14,4,3,10,15,7,12,16
5,17,18,19,20,21,22,23,24
6,25,26,19,18,27,28,22,29
7,30,20,19,26,31,23,28,32
8,33,34,35,36,37,38,39,40
9,41,42,35,34,43,44,38,45
10,46,36,35,42,47,39,44,48
11,49,50,51,52,53,54,55,56
12,46,57,51,50,58,59,54,60
13,61,52,51,57,62,55,59,63
14,61,64,65,52,66,67,68,62
15,69,70,65,64,71,72,67,73
16,49,52,65,70,56,68,72,74
17,25,75,76,26,77,78,79,27
18,80,81,76,75,82,83,78,84
19,30,26,76,81,32,79,83,85
20,30,86,87,20,88,89,90,31
21,91,92,87,86,93,94,89,95
22,17,20,87,92,24,90,94,96
23,97,98,99,100,101,102,103,104
24,46,50,99,98,60,105,102,106
25,49,100,99,50,107,103,105,53
26,108,109,110,111,112,113,114,115
27,30,116,110,109,117,118,113,119
28,61,111,110,116,120,114,118,121
29,17,122,123,18,124,125,126,21
30,127,128,123,122,129,130,125,131
31,25,18,123,128,29,126,130,132
32,133,134,135,136,137,138,139,140
33,141,142,135,134,143,144,138,145
34,146,136,135,142,147,139,144,148
35,149,150,151,152,153,154,155,156
36,157,158,151,150,159,160,154,161
37,162,152,151,158,163,155,160,164
38,165,166,167,168,169,170,171,172
39,173,174,167,166,175,176,170,177
40,178,168,167,174,179,171,176,180
41,181,182,183,184,185,186,187,188
42,189,190,183,182,191,192,186,193
43,194,184,183,190,195,187,192,196
44,197,198,199,200,201,202,203,204
45,205,206,199,198,207,208,202,209
46,210,200,199,206,211,203,208,212
47,133,213,214,215,216,217,218,219
48,220,221,214,213,222,223,217,224
49,225,215,214,221,226,218,223,227
50,133,215,228,134,219,229,230,137
51,225,231,228,215,232,233,229,226
52,141,134,228,231,145,230,233,234
53,235,236,237,238,239,240,241,242
54,225,243,237,236,244,245,240,246
55,247,238,237,243,248,241,245,249
56,220,250,251,221,252,253,254,222
57,247,243,251,250,249,255,253,256
58,225,221,251,243,227,254,255,244
59,257,258,259,260,261,262,263,264
60,173,265,259,258,266,267,262,268
61,269,260,259,265,270,263,267,271
62,272,273,274,275,276,277,278,279
63,189,280,274,273,281,282,277,283
64,284,275,274,280,285,278,282,286
65,287,288,289,290,291,292,293,294
66,295,296,289,288,297,298,292,299
67,300,290,289,296,301,293,298,302
68,303,304,305,306,307,308,309,310
69,311,312,305,304,313,314,308,315
70,316,306,305,312,317,309,314,318
71,319,320,321,322,323,324,325,326
72,327,328,321,320,329,330,324,331
73,332,322,321,328,333,325,330,334
74,335,336,337,338,339,340,341,342
75,343,344,337,336,345,346,340,347
76,327,338,337,344,348,341,346,349
77,350,351,352,353,354,355,356,357
78,358,359,352,351,360,361,355,362
79,33,353,352,359,363,356,361,364
80,220,365,366,250,367,368,369,252
81,370,371,366,365,372,373,368,374
82,247,250,366,371,256,369,373,375
83,108,376,377,378,379,380,381,382
84,383,384,377,376,385,386,380,387
85,370,378,377,384,388,381,386,389
86,220,390,391,365,392,393,394,367
87,395,396,391,390,397,398,393,399
88,370,365,391,396,374,394,398,400
89,401,402,403,404,405,406,407,408
90,409,410,403,402,411,412,406,413
91,414,404,403,410,415,407,412,416
92,417,418,419,420,421,422,423,424
93,425,426,419,418,427,428,422,429
94,430,420,419,426,431,423,428,432
95,433,434,435,436,437,438,439,440
96,441,442,435,434,443,444,438,445
97,446,436,435,442,447,439,444,448
98,235,449,450,451,452,453,454,455
99,456,457,450,449,458,459,453,460
100,461,451,450,457,462,454,459,463
101,149,464,465,466,467,468,469,470
102,141,471,465,464,472,473,468,474
103,461,466,465,471,475,469,473,476
104,477,478,479,480,481,482,483,484
105,485,486,479,478,487,488,482,489
106,490,480,479,486,491,483,488,492
107,493,494,495,496,497,498,499,500
108,501,502,495,494,503,504,498,505
109,343,496,495,502,506,499,504,507
110,332,508,509,510,511,512,513,514
111,501,515,509,508,516,517,512,518
112,519,510,509,515,520,513,517,521
113,522,523,524,525,526,527,528,529
114,530,531,524,523,532,533,527,534
115,535,525,524,531,536,528,533,537
116,433,538,539,540,541,542,543,544
117,545,546,539,538,547,548,542,549
118,550,540,539,546,551,543,548,552
119,146,553,554,555,556,557,558,559
120,162,560,554,553,561,562,557,563
121,564,555,554,560,565,558,562,566
122,146,142,567,553,148,568,569,556
123,141,570,567,142,571,572,568,143
124,162,553,567,570,563,569,572,573
125,149,152,574,464,156,575,576,467
126,162,570,574,152,573,577,575,163
127,141,464,574,570,474,576,577,571
128,178,578,579,580,581,582,583,584
129,585,586,579,578,587,588,582,589
130,590,580,579,586,591,583,588,592
131,194,593,594,184,595,596,597,195
132,210,598,594,593,599,600,596,601
133,181,184,594,598,188,597,600,602
134,603,604,605,606,607,608,609,610
135,311,611,605,604,612,613,608,614
136,615,606,605,611,616,609,613,617
137,603,606,618,619,610,620,621,622
138,615,623,618,606,624,625,620,616
139,300,619,618,623,626,621,625,627
140,108,628,629,630,631,632,633,634
141,41,635,629,628,636,637,632,638
142,358,630,629,635,639,633,637,640
143,33,359,641,34,364,642,643,37
144,358,635,641,359,640,644,642,360
145,41,34,641,635,45,643,644,636
146,108,111,645,628,115,646,647,631
147,61,648,645,111,649,650,646,120
148,41,628,645,648,638,647,650,651
149,61,57,652,648,63,653,654,649
150,46,42,652,57,48,655,653,58
151,41,648,652,42,651,654,655,43
152,108,656,657,109,658,659,660,112
153,91,86,657,656,95,661,659,662
154,30,109,657,86,119,660,661,88
155,395,663,664,665,666,667,668,669
156,17,92,664,663,96,670,667,671
157,91,665,664,92,672,668,670,93
158,108,378,673,656,382,674,675,658
159,370,676,673,378,677,678,674,388
160,91,656,673,676,662,675,678,679
161,395,665,680,396,669,681,682,397
162,91,676,680,665,679,683,681,672
163,370,396,680,676,400,682,683,677
164,287,684,685,686,687,688,689,690
165,257,260,685,684,264,691,688,692
166,269,686,685,260,693,689,691,270
167,694,695,696,697,698,699,700,701
168,702,703,696,695,704,705,699,706
169,414,697,696,703,707,700,705,708
170,694,709,710,695,711,712,713,698
171,714,715,710,709,716,717,712,718
172,702,695,710,715,706,713,717,719
173,303,720,721,722,723,724,725,726
174,284,727,721,720,728,729,724,730
175,731,722,721,727,732,725,729,733
176,734,735,736,737,738,739,740,741
177,590,742,736,735,743,744,739,745
178,746,737,736,742,747,740,744,748
179,157,749,750,158,751,752,753,159
180,205,754,750,749,755,756,752,757
181,162,158,750,754,164,753,756,758
182,759,760,761,762,763,764,765,766
183,490,767,761,760,768,769,764,770
184,425,762,761,767,771,765,769,772
185,490,773,774,767,775,776,777,768
186,778,779,774,773,780,781,776,782
187,425,767,774,779,772,777,781,783
188,141,784,785,471,786,787,788,472
189,789,790,785,784,791,792,787,793
190,461,471,785,790,476,788,792,794
191,235,451,795,796,455,797,798,799
192,461,790,795,451,794,800,797,462
193,789,796,795,790,801,798,800,791
194,141,231,802,784,234,803,804,786
195,225,805,802,231,806,807,803,232
196,789,784,802,805,793,804,807,808
197,235,796,809,236,799,810,811,239
198,789,805,809,796,808,812,810,801
199,225,236,809,805,246,811,812,806
200,401,813,814,815,816,817,818,819
201,300,296,814,813,302,820,817,821
202,295,815,814,296,822,818,820,297
203,585,578,823,824,589,825,826,827
204,178,174,823,578,180,828,825,581
205,173,824,823,174,829,826,828,175
206,165,830,831,166,832,833,834,169
207,269,265,831,830,271,835,833,836
208,173,166,831,265,177,834,835,266
209,272,837,838,273,839,840,841,276
210,194,190,838,837,196,842,840,843
211,189,273,838,190,283,841,842,191
212,731,727,844,845,733,846,847,848
213,284,280,844,727,286,849,846,728
214,189,845,844,280,850,847,849,281
215,332,328,851,508,334,852,853,511
216,327,854,851,328,855,856,852,329
217,501,508,851,854,518,853,856,857
218,343,502,858,344,507,859,860,345
219,501,854,858,502,857,861,859,503
220,327,344,858,854,349,860,861,855
221,862,863,864,865,866,867,868,869
222,316,312,864,863,318,870,867,871
223,311,865,864,312,872,868,870,313
224,477,480,873,874,484,875,876,877
225,490,878,873,480,879,880,875,491
226,881,874,873,878,882,876,880,883
227,522,884,885,886,887,888,889,890
228,891,892,885,884,893,894,888,895
229,714,886,885,892,896,889,894,897
230,149,466,898,899,470,900,901,902
231,461,903,898,466,904,905,900,475
232,550,899,898,903,906,901,905,907
233,694,697,908,909,701,910,911,912
234,414,913,908,697,914,915,910,707
235,881,909,908,913,916,911,915,917
236,603,918,919,920,921,922,923,924
237,925,926,919,918,927,928,922,929
238,702,920,919,926,930,923,928,931
239,414,703,932,933,708,934,935,936
240,702,926,932,703,931,937,934,704
241,925,933,932,926,938,935,937,927
242,603,619,939,918,622,940,941,921
243,300,942,939,619,943,944,940,626
244,925,918,939,942,929,941,944,945
245,311,946,947,611,948,949,950,612
246,951,952,947,946,953,954,949,955
247,615,611,947,952,617,950,954,956
248,957,958,959,960,961,962,963,964
249,965,966,959,958,967,968,962,969
250,951,960,959,966,970,963,968,971
251,957,960,972,973,964,974,975,976
252,951,977,972,960,978,979,974,970
253,731,973,972,977,980,975,979,981
254,778,773,982,983,782,984,985,986
255,490,486,982,773,492,987,984,775
256,485,983,982,486,988,985,987,487
257,759,762,989,990,766,991,992,993
258,425,418,989,762,429,994,991,771
259,417,990,989,418,995,992,994,421
260,430,996,997,420,998,999,1000,431
261,535,1001,997,996,1002,1003,999,1004
262,417,420,997,1001,424,1000,1003,1005
263,80,1006,1007,81,1008,1009,1010,82
264,69,1011,1007,1006,1012,1013,1009,1014
265,30,81,1007,1011,85,1010,1013,1015
266,61,116,1016,64,121,1017,1018,66
267,30,1011,1016,116,1015,1019,1017,117
268,69,64,1016,1011,73,1018,1019,1012
269,80,1020,1021,1006,1022,1023,1024,1008
270,1025,1026,1021,1020,1027,1028,1023,1029
271,69,1006,1021,1026,1014,1024,1028,1030
272,1025,1031,1032,1026,1033,1034,1035,1027
273,49,70,1032,1031,74,1036,1034,1037
274,69,1026,1032,70,1030,1035,1036,71
275,446,1038,1039,1040,1041,1042,1043,1044
276,456,1045,1039,1038,1046,1047,1042,1048
277,350,1040,1039,1045,1049,1043,1047,1050
278,615,952,1051,1052,956,1053,1054,1055
279,951,966,1051,952,971,1056,1053,953
280,965,1052,1051,966,1057,1054,1056,967
281,300,623,1058,1059,627,1060,1061,1062
282,615,1052,1058,623,1055,1063,1060,624
283,965,1059,1058,1052,1064,1061,1063,1057
284,957,1065,1066,958,1067,1068,1069,961
285,257,1070,1066,1065,1071,1072,1068,1073
286,965,958,1066,1070,969,1069,1072,1074
287,235,1075,1076,449,1077,1078,1079,452
288,358,1080,1076,1075,1081,1082,1078,1083
289,456,449,1076,1080,460,1079,1082,1084
290,350,1045,1085,351,1050,1086,1087,354
291,456,1080,1085,1045,1084,1088,1086,1046
292,358,351,1085,1080,362,1087,1088,1081
293,9,1089,1090,1091,1092,1093,1094,1095
294,519,1096,1090,1089,1097,1098,1093,1099
295,1100,1091,1090,1096,1101,1094,1098,1102
296,493,1103,1104,1105,1106,1107,1108,1109
297,14,1110,1104,1103,1111,1112,1107,1113
298,1100,1105,1104,1110,1114,1108,1112,1115
299,9,1091,1116,10,1095,1117,1118,11
300,1100,1110,1116,1091,1115,1119,1117,1101
301,14,10,1116,1110,16,1118,1119,1111
302,311,1120,1121,865,1122,1123,1124,872
303,1125,1126,1121,1120,1127,1128,1123,1129
304,862,865,1121,1126,869,1124,1128,1130
305,714,1131,1132,715,1133,1134,1135,716
306,1125,1136,1132,1131,1137,1138,1134,1139
307,702,715,1132,1136,719,1135,1138,1140
308,731,977,1141,722,981,1142,1143,732
309,951,1144,1141,977,1145,1146,1142,978
310,303,722,1141,1144,726,1143,1146,1147
311,311,304,1148,946,315,1149,1150,948
312,303,1144,1148,304,1147,1151,1149,307
313,951,946,1148,1144,955,1150,1151,1145
314,456,1152,1153,457,1154,1155,1156,458
315,441,1157,1153,1152,1158,1159,1155,1160
316,461,457,1153,1157,463,1156,1159,1161
317,550,903,1162,1163,907,1164,1165,1166
318,461,1157,1162,903,1161,1167,1164,904
319,441,1163,1162,1157,1168,1165,1167,1158
320,456,1038,1169,1152,1048,1170,1171,1154
321,446,442,1169,1038,448,1172,1170,1041
322,441,1152,1169,442,1160,1171,1172,443
323,550,1163,1173,540,1166,1174,1175,551
324,441,434,1173,1163,445,1176,1174,1168
325,433,540,1173,434,544,1175,1176,437
326,417,1001,1177,1178,1005,1179,1180,1181
327,535,531,1177,1001,537,1182,1179,1002
328,530,1178,1177,531,1183,1180,1182,532
329,714,1184,1185,886,1186,1187,1188,896
330,530,523,1185,1184,534,1189,1187,1190
331,522,886,1185,523,890,1188,1189,526
332,300,1059,1191,290,1062,1192,1193,301
333,965,1194,1191,1059,1195,1196,1192,1064
334,287,290,1191,1194,294,1193,1196,1197
335,257,684,1198,1070,692,1199,1200,1071
336,287,1194,1198,684,1197,1201,1199,687
337,965,1070,1198,1194,1074,1200,1201,1195
338,881,1202,1203,1204,1205,1206,1207,1208
339,1209,1210,1203,1202,1211,1212,1206,1213
340,530,1204,1203,1210,1214,1207,1212,1215
341,417,1178,1216,1217,1181,1218,1219,1220
342,530,1210,1216,1178,1215,1221,1218,1183
343,1209,1217,1216,1210,1222,1219,1221,1211
344,417,1217,1223,990,1220,1224,1225,995
345,1209,1226,1223,1217,1227,1228,1224,1222
346,759,990,1223,1226,993,1225,1228,1229
347,1230,1231,1232,1233,1234,1235,1236,1237
348,1238,1239,1232,1231,1240,1241,1235,1242
349,746,1233,1232,1239,1243,1236,1241,1244
350,1245,1246,1247,1248,1249,1250,1251,1252
351,1230,1253,1247,1246,1254,1255,1250,1256
352,585,1248,1247,1253,1257,1251,1255,1258
353,205,749,1259,1260,757,1261,1262,1263
354,157,1264,1259,749,1265,1266,1261,751
355,1267,1260,1259,1264,1268,1262,1266,1269
356,1245,1270,1271,1272,1273,1274,1275,1276
357,181,1277,1271,1270,1278,1279,1274,1280
358,1267,1272,1271,1277,1281,1275,1279,1282
359,585,1253,1283,586,1258,1284,1285,587
360,1230,1286,1283,1253,1287,1288,1284,1254
361,590,586,1283,1286,592,1285,1288,1289
362,746,742,1290,1233,748,1291,1292,1243
363,590,1286,1290,742,1289,1293,1291,743
364,1230,1233,1290,1286,1237,1292,1293,1287
365,181,598,1294,1277,602,1295,1296,1278
366,210,1297,1294,598,1298,1299,1295,599
367,1267,1277,1294,1297,1282,1296,1299,1300
368,205,1260,1301,206,1263,1302,1303,207
369,1267,1297,1301,1260,1300,1304,1302,1268
370,210,206,1301,1297,212,1303,1304,1298
371,300,813,1305,942,821,1306,1307,943
372,401,1308,1305,813,1309,1310,1306,816
373,925,942,1305,1308,945,1307,1310,1311
374,414,933,1312,404,936,1313,1314,415
375,925,1308,1312,933,1311,1315,1313,938
376,401,404,1312,1308,408,1314,1315,1309
377,1316,1317,1318,1319,1320,1321,1322,1323
378,1324,1325,1318,1317,1326,1327,1321,1328
379,173,1319,1318,1325,1329,1322,1327,1330
380,585,824,1331,1332,827,1333,1334,1335
381,173,1325,1331,824,1330,1336,1333,829
382,1324,1332,1331,1325,1337,1334,1336,1326
383,585,1332,1338,1248,1335,1339,1340,1257
384,1324,1341,1338,1332,1342,1343,1339,1337
385,1245,1248,1338,1341,1252,1340,1343,1344
386,181,1345,1346,182,1347,1348,1349,185
387,1324,1350,1346,1345,1351,1352,1348,1353
388,189,182,1346,1350,193,1349,1352,1354
389,1316,1355,1356,1317,1357,1358,1359,1320
390,189,1350,1356,1355,1354,1360,1358,1361
391,1324,1317,1356,1350,1328,1359,1360,1351
392,181,1270,1362,1345,1280,1363,1364,1347
393,1245,1341,1362,1270,1344,1365,1363,1273
394,1324,1345,1362,1341,1353,1364,1365,1342
395,1316,1366,1367,1355,1368,1369,1370,1357
396,1371,1372,1367,1366,1373,1374,1369,1375
397,189,1355,1367,1372,1361,1370,1374,1376
398,731,845,1377,1378,848,1379,1380,1381
399,189,1372,1377,845,1376,1382,1379,850
400,1371,1378,1377,1372,1383,1380,1382,1373
401,1316,1384,1385,1366,1386,1387,1388,1368
402,1389,1390,1385,1384,1391,1392,1387,1393
403,1371,1366,1385,1390,1375,1388,1392,1394
404,731,1378,1395,973,1381,1396,1397,980
405,1371,1398,1395,1378,1399,1400,1396,1383
406,957,973,1395,1398,976,1397,1400,1401
407,957,1398,1402,1403,1401,1404,1405,1406
408,1371,1390,1402,1398,1394,1407,1404,1399
409,1389,1403,1402,1390,1408,1405,1407,1391
410,257,1065,1409,1410,1073,1411,1412,1413
411,957,1403,1409,1065,1406,1414,1411,1067
412,1389,1410,1409,1403,1415,1412,1414,1408
413,1316,1319,1416,1384,1323,1417,1418,1386
414,173,1419,1416,1319,1420,1421,1417,1329
415,1389,1384,1416,1419,1393,1418,1421,1422
416,257,1410,1423,258,1413,1424,1425,261
417,1389,1419,1423,1410,1422,1426,1424,1415
418,173,258,1423,1419,268,1425,1426,1420
419,702,1136,1427,920,1140,1428,1429,930
420,1125,1430,1427,1136,1431,1432,1428,1137
421,603,920,1427,1430,924,1429,1432,1433
422,311,604,1434,1120,614,1435,1436,1122
423,603,1430,1434,604,1433,1437,1435,607
424,1125,1120,1434,1430,1129,1436,1437,1431
425,862,1438,1439,1440,1441,1442,1443,1444
426,1445,1446,1439,1438,1447,1448,1442,1449
427,891,1440,1439,1446,1450,1443,1448,1451
428,714,892,1452,1453,897,1454,1455,1456
429,891,1446,1452,892,1451,1457,1454,893
430,1445,1453,1452,1446,1458,1455,1457,1447
431,862,1126,1459,1438,1130,1460,1461,1441
432,1125,1462,1459,1126,1463,1464,1460,1127
433,1445,1438,1459,1462,1449,1461,1464,1465
434,714,1453,1466,1131,1456,1467,1468,1133
435,1445,1462,1466,1453,1465,1469,1467,1458
436,1125,1131,1466,1462,1139,1468,1469,1463
437,425,1470,1471,1472,1473,1474,1475,1476
438,1477,1478,1471,1470,1479,1480,1474,1481
439,327,1472,1471,1478,1482,1475,1480,1483
440,335,338,1484,1485,342,1486,1487,1488
441,327,1478,1484,338,1483,1489,1486,348
442,1477,1485,1484,1478,1490,1487,1489,1479
443,425,779,1491,1470,783,1492,1493,1473
444,778,1494,1491,779,1495,1496,1492,780
445,1477,1470,1491,1494,1481,1493,1496,1497
446,335,1485,1498,1499,1488,1500,1501,1502
447,1477,1494,1498,1485,1497,1503,1500,1490
448,778,1499,1498,1494,1504,1501,1503,1495
449,319,1505,1506,320,1507,1508,1509,323
450,1510,1511,1506,1505,1512,1513,1508,1514
451,327,320,1506,1511,331,1509,1513,1515
452,425,1472,1516,1517,1476,1518,1519,1520
453,327,1511,1516,1472,1515,1521,1518,1482
454,1510,1517,1516,1511,1522,1519,1521,1512
455,319,1523,1524,1505,1525,1526,1527,1507
456,430,1528,1524,1523,1529,1530,1526,1531
457,1510,1505,1524,1528,1514,1527,1530,1532
458,425,1517,1533,426,1520,1534,1535,427
459,1510,1528,1533,1517,1532,1536,1534,1522
460,430,426,1533,1528,432,1535,1536,1529
461,157,1537,1538,1539,1540,1541,1542,1543
462,1544,1545,1538,1537,1546,1547,1541,1548
463,746,1539,1538,1545,1549,1542,1547,1550
464,550,1551,1552,1553,1554,1555,1556,1557
465,1558,1559,1552,1551,1560,1561,1555,1562
466,1544,1553,1552,1559,1563,1556,1561,1564
467,157,150,1565,1537,161,1566,1567,1540
468,149,1568,1565,150,1569,1570,1566,153
469,1544,1537,1565,1568,1548,1567,1570,1571
470,550,1553,1572,899,1557,1573,1574,906
471,1544,1568,1572,1553,1571,1575,1573,1563
472,149,899,1572,1568,902,1574,1575,1569
473,157,1576,1577,1264,1578,1579,1580,1265
474,1238,1581,1577,1576,1582,1583,1579,1584
475,1267,1264,1577,1581,1269,1580,1583,1585
476,1245,1272,1586,1587,1276,1588,1589,1590
477,1267,1581,1586,1272,1585,1591,1588,1281
478,1238,1587,1586,1581,1592,1589,1591,1582
479,157,1539,1593,1576,1543,1594,1595,1578
480,746,1239,1593,1539,1244,1596,1594,1549
481,1238,1576,1593,1239,1584,1595,1596,1240
482,1245,1587,1597,1246,1590,1598,1599,1249
483,1238,1231,1597,1587,1242,1600,1598,1592
484,1230,1246,1597,1231,1256,1599,1600,1234
485,519,515,1601,1096,521,1602,1603,1097
486,501,1604,1601,515,1605,1606,1602,516
487,1100,1096,1601,1604,1102,1603,1606,1607
488,493,1105,1608,494,1109,1609,1610,497
489,1100,1604,1608,1105,1607,1611,1609,1114
490,501,494,1608,1604,505,1610,1611,1605
491,881,878,1612,1202,883,1613,1614,1205
492,490,1615,1612,878,1616,1617,1613,879
493,1209,1202,1612,1615,1213,1614,1617,1618
494,759,1226,1619,760,1229,1620,1621,763
495,1209,1615,1619,1226,1618,1622,1620,1227
496,490,760,1619,1615,770,1621,1622,1616
497,714,709,1623,1184,718,1624,1625,1186
498,694,1626,1623,709,1627,1628,1624,711
499,530,1184,1623,1626,1190,1625,1628,1629
500,881,1204,1630,909,1208,1631,1632,916
501,530,1626,1630,1204,1629,1633,1631,1214
502,694,909,1630,1626,912,1632,1633,1627
503,205,1634,1635,754,1636,1637,1638,755
504,1639,1640,1635,1634,1641,1642,1637,1643
505,162,754,1635,1640,758,1638,1642,1644
506,564,560,1645,1646,566,1647,1648,1649
507,162,1640,1645,560,1644,1650,1647,561
508,1639,1646,1645,1640,1651,1648,1650,1641
509,205,198,1652,1634,209,1653,1654,1636
510,197,1655,1652,198,1656,1657,1653,201
511,1639,1634,1652,1655,1643,1654,1657,1658
512,564,1646,1659,1660,1649,1661,1662,1663
513,1639,1655,1659,1646,1658,1664,1661,1651
514,197,1660,1659,1655,1665,1662,1664,1656
515,746,1666,1667,737,1668,1669,1670,747
516,1558,1671,1667,1666,1672,1673,1669,1674
517,734,737,1667,1671,741,1670,1673,1675
518,545,1676,1677,1678,1679,1680,1681,1682
519,734,1671,1677,1676,1675,1683,1680,1684
520,1558,1678,1677,1671,1685,1681,1683,1672
521,746,1545,1686,1666,1550,1687,1688,1668
522,1544,1559,1686,1545,1564,1689,1687,1546
523,1558,1666,1686,1559,1674,1688,1689,1560
524,545,1678,1690,546,1682,1691,1692,547
525,1558,1551,1690,1678,1562,1693,1691,1685
526,550,546,1690,1551,552,1692,1693,1554
527,409,1694,1695,410,1696,1697,1698,411
528,1699,1700,1695,1694,1701,1702,1697,1703
529,414,410,1695,1700,416,1698,1702,1704
530,881,913,1705,1706,917,1707,1708,1709
531,414,1700,1705,913,1704,1710,1707,914
532,1699,1706,1705,1700,1711,1708,1710,1701
533,409,1712,1713,1694,1714,1715,1716,1696
534,477,1717,1713,1712,1718,1719,1715,1720
535,1699,1694,1713,1717,1703,1716,1719,1721
536,881,1706,1722,874,1709,1723,1724,882
537,1699,1717,1722,1706,1721,1725,1723,1711
538,477,874,1722,1717,877,1724,1725,1718
539,247,371,1726,1727,375,1728,1729,1730
540,370,384,1726,371,389,1731,1728,372
541,383,1727,1726,384,1732,1729,1731,385
542,235,238,1733,1734,242,1735,1736,1737
543,247,1727,1733,238,1730,1738,1735,248
544,383,1734,1733,1727,1739,1736,1738,1732
545,108,630,1740,376,634,1741,1742,379
546,358,1743,1740,630,1744,1745,1741,639
547,383,376,1740,1743,387,1742,1745,1746
548,235,1734,1747,1075,1737,1748,1749,1077
549,383,1743,1747,1734,1746,1750,1748,1739
550,358,1075,1747,1743,1083,1749,1750,1744
551,1,4,1751,1752,8,1753,1754,1755
552,14,1756,1751,4,1757,1758,1753,15
553,1759,1752,1751,1756,1760,1754,1758,1761
554,1762,1763,1764,1765,1766,1767,1768,1769
555,1770,1771,1764,1763,1772,1773,1767,1774
556,1775,1765,1764,1771,1776,1768,1773,1777
557,1778,1779,1780,1781,1782,1783,1784,1785
558,1786,1787,1780,1779,1788,1789,1783,1790
559,1791,1781,1780,1787,1792,1784,1789,1793
560,1791,1794,1795,1781,1796,1797,1798,1792
561,1775,1799,1795,1794,1800,1801,1797,1802
562,1778,1781,1795,1799,1785,1798,1801,1803
563,46,1804,1805,1806,1807,1808,1809,1810
564,1811,1812,1805,1804,1813,1814,1808,1815
565,1816,1806,1805,1812,1817,1809,1814,1818
566,1811,1819,1820,1812,1821,1822,1823,1813
567,1824,1825,1820,1819,1826,1827,1822,1828
568,1816,1812,1820,1825,1818,1823,1827,1829
569,1816,1830,1831,1806,1832,1833,1834,1817
570,1835,1836,1831,1830,1837,1838,1833,1839
571,46,1806,1831,1836,1810,1834,1838,1840
572,1841,1842,1843,1844,1845,1846,1847,1848
573,1775,1794,1843,1842,1802,1849,1846,1850
574,1791,1844,1843,1794,1851,1847,1849,1796
575,1852,1853,1854,1855,1856,1857,1858,1859
576,1816,1860,1854,1853,1861,1862,1857,1863
577,1778,1855,1854,1860,1864,1858,1862,1865
578,46,98,1866,1804,106,1867,1868,1807
579,97,1869,1866,98,1870,1871,1867,101
580,1811,1804,1866,1869,1815,1868,1871,1872
581,446,1873,1874,436,1875,1876,1877,447
582,1878,1879,1874,1873,1880,1881,1876,1882
583,433,436,1874,1879,440,1877,1881,1883
584,1884,1885,1886,1887,1888,1889,1890,1891
585,1892,1893,1886,1885,1894,1895,1889,1896
586,1897,1887,1886,1893,1898,1890,1895,1899
587,1900,1901,1902,1903,1904,1905,1906,1907
588,1908,1909,1902,1901,1910,1911,1905,1912
589,1913,1903,1902,1909,1914,1906,1911,1915
590,1916,1917,1918,1919,1920,1921,1922,1923
591,1924,1925,1918,1917,1926,1927,1921,1928
592,178,1919,1918,1925,1929,1922,1927,1930
593,734,1931,1932,735,1933,1934,1935,738
594,1936,1937,1932,1931,1938,1939,1934,1940
595,590,735,1932,1937,745,1935,1939,1941
596,446,1942,1943,1873,1944,1945,1946,1875
597,1947,1948,1943,1942,1949,1950,1945,1951
598,1878,1873,1943,1948,1882,1946,1950,1952
599,446,1040,1953,1942,1044,1954,1955,1944
600,350,1956,1953,1040,1957,1958,1954,1049
601,1947,1942,1953,1956,1951,1955,1958,1959
602,1960,1961,1962,1963,1964,1965,1966,1967
603,1947,1968,1962,1961,1969,1970,1965,1971
604,1972,1963,1962,1968,1973,1966,1970,1974
605,350,1975,1976,1956,1977,1978,1979,1957
606,1972,1968,1976,1975,1974,1980,1978,1981
607,1947,1956,1976,1968,1959,1979,1980,1969
608,1982,1983,1984,1985,1986,1987,1988,1989
609,1908,1990,1984,1983,1991,1992,1987,1993
610,1994,1985,1984,1990,1995,1988,1992,1996
611,165,1997,1998,830,1999,2000,2001,832
612,1924,2002,1998,1997,2003,2004,2000,2005
613,269,830,1998,2002,836,2001,2004,2006
614,2007,2008,2009,2010,2011,2012,2013,2014
615,2015,2016,2009,2008,2017,2018,2012,2019
616,2020,2010,2009,2016,2021,2013,2018,2022
617,287,2023,2024,288,2025,2026,2027,291
618,2028,2029,2024,2023,2030,2031,2026,2032
619,295,288,2024,2029,299,2027,2031,2033
620,335,2034,2035,336,2036,2037,2038,339
621,2039,2040,2035,2034,2041,2042,2037,2043
622,343,336,2035,2040,347,2038,2042,2044
623,2045,2046,2047,2048,2049,2050,2051,2052
624,2053,2054,2047,2046,2055,2056,2050,2057
625,2039,2048,2047,2054,2058,2051,2056,2059
626,2060,2061,2062,2063,2064,2065,2066,2067
627,2068,2069,2062,2061,2070,2071,2065,2072
628,1762,2063,2062,2069,2073,2066,2071,2074
629,350,2075,2076,1975,2077,2078,2079,1977
630,2080,2081,2076,2075,2082,2083,2078,2084
631,1972,1975,2076,2081,1981,2079,2083,2085
632,1852,2086,2087,2088,2089,2090,2091,2092
633,2093,2094,2087,2086,2095,2096,2090,2097
634,2080,2088,2087,2094,2098,2091,2096,2099
635,350,353,2100,2075,357,2101,2102,2077
636,33,2103,2100,353,2104,2105,2101,363
637,2080,2075,2100,2103,2084,2102,2105,2106
638,2107,2108,2109,2110,2111,2112,2113,2114
639,2115,2116,2109,2108,2117,2118,2112,2119
640,2120,2110,2109,2116,2121,2113,2118,2122
641,2123,2124,2125,2126,2127,2128,2129,2130
642,2131,2132,2125,2124,2133,2134,2128,2135
643,778,2126,2125,2132,2136,2129,2134,2137
644,2138,2139,2140,2141,2142,2143,2144,2145
645,2146,2147,2140,2139,2148,2149,2143,2150
646,2151,2141,2140,2147,2152,2144,2149,2153
647,1884,2154,2155,2156,2157,2158,2159,2160
648,1878,2161,2155,2154,2162,2163,2158,2164
649,2165,2156,2155,2161,2166,2159,2163,2167
650,1960,2168,2169,2170,2171,2172,2173,2174
651,2175,2176,2169,2168,2177,2178,2172,2179
652,2165,2170,2169,2176,2180,2173,2178,2181
653,2182,2183,2184,2185,2186,2187,2188,2189
654,2190,2191,2184,2183,2192,2193,2187,2194
655,2195,2185,2184,2191,2196,2188,2193,2197
656,2198,2199,2200,2201,2202,2203,2204,2205
657,2206,2207,2200,2199,2208,2209,2203,2210
658,2053,2201,2200,2207,2211,2204,2209,2212
659,343,2213,2214,496,2215,2216,2217,506
660,2206,2218,2214,2213,2219,2220,2216,2221
661,493,496,2214,2218,500,2217,2220,2222
662,477,2223,2224,478,2225,2226,2227,481
663,2228,2229,2224,2223,2230,2231,2226,2232
664,485,478,2224,2229,489,2227,2231,2233
665,2138,2234,2235,2236,2237,2238,2239,2240
666,2241,2242,2235,2234,2243,2244,2238,2245
667,2246,2236,2235,2242,2247,2239,2244,2248
668,1884,1887,2249,2154,1891,2250,2251,2157
669,1897,2252,2249,1887,2253,2254,2250,1898
670,1878,2154,2249,2252,2164,2251,2254,2255
671,433,1879,2256,2257,1883,2258,2259,2260
672,1878,2252,2256,1879,2255,2261,2258,1880
673,1897,2257,2256,2252,2262,2259,2261,2253
674,433,2257,2263,538,2260,2264,2265,541
675,1897,2266,2263,2257,2267,2268,2264,2262
676,545,538,2263,2266,549,2265,2268,2269
677,1913,2270,2271,2272,2273,2274,2275,2276
678,2277,2278,2271,2270,2279,2280,2274,2281
679,2282,2272,2271,2278,2283,2275,2280,2284
680,178,580,2285,1919,584,2286,2287,1929
681,590,2288,2285,580,2289,2290,2286,591
682,1916,1919,2285,2288,1923,2287,2290,2291
683,2292,2293,2294,2295,2296,2297,2298,2299
684,2028,2300,2294,2293,2301,2302,2297,2303
685,2304,2295,2294,2300,2305,2298,2302,2306
686,2292,2295,2307,2308,2299,2309,2310,2311
687,2304,2312,2307,2295,2313,2314,2309,2305
688,2020,2308,2307,2312,2315,2310,2314,2316
689,1852,2317,2318,2319,2320,2321,2322,2323
690,1770,2324,2318,2317,2325,2326,2321,2327
691,2068,2319,2318,2324,2328,2322,2326,2329
692,1762,2069,2330,1763,2074,2331,2332,1766
693,2068,2324,2330,2069,2329,2333,2331,2070
694,1770,1763,2330,2324,1774,2332,2333,2325
695,1852,1855,2334,2317,1859,2335,2336,2320
696,1778,2337,2334,1855,2338,2339,2335,1864
697,1770,2317,2334,2337,2327,2336,2339,2340
698,1778,1799,2341,2337,1803,2342,2343,2338
699,1775,1771,2341,1799,1777,2344,2342,1800
700,1770,2337,2341,1771,2340,2343,2344,1772
701,33,2345,2346,2103,2347,2348,2349,2104
702,1835,2350,2346,2345,2351,2352,2348,2353
703,2080,2103,2346,2350,2106,2349,2352,2354
704,1852,2088,2355,2356,2092,2357,2358,2359
705,2080,2350,2355,2088,2354,2360,2357,2098
706,1835,2356,2355,2350,2361,2358,2360,2351
707,33,36,2362,2345,40,2363,2364,2347
708,46,1836,2362,36,1840,2365,2363,47
709,1835,2345,2362,1836,2353,2364,2365,1837
710,1852,2356,2366,1853,2359,2367,2368,1856
711,1835,1830,2366,2356,1839,2369,2367,2361
712,1816,1853,2366,1830,1863,2368,2369,1832
713,2007,2370,2371,2372,2373,2374,2375,2376
714,1982,1985,2371,2370,1989,2377,2374,2378
715,1994,2372,2371,1985,2379,2375,2377,1995
716,2380,2381,2382,2383,2384,2385,2386,2387
717,2388,2389,2382,2381,2390,2391,2385,2392
718,2120,2383,2382,2389,2393,2386,2391,2394
719,2380,2395,2396,2381,2397,2398,2399,2384
720,2400,2401,2396,2395,2402,2403,2398,2404
721,2388,2381,2396,2401,2392,2399,2403,2405
722,287,686,2406,2407,690,2408,2409,2410
723,269,2411,2406,686,2412,2413,2408,693
724,2414,2407,2406,2411,2415,2409,2413,2416
725,2417,2418,2419,2420,2421,2422,2423,2424
726,2282,2425,2419,2418,2426,2427,2422,2428
727,2429,2420,2419,2425,2430,2423,2427,2431
728,1892,2432,2433,1893,2434,2435,2436,1894
729,1936,2437,2433,2432,2438,2439,2435,2440
730,1897,1893,2433,2437,1899,2436,2439,2441
731,2442,2443,2444,2445,2446,2447,2448,2449
732,2195,2450,2444,2443,2451,2452,2447,2453
733,2131,2445,2444,2450,2454,2448,2452,2455
734,2195,2456,2457,2450,2458,2459,2460,2451
735,2461,2462,2457,2456,2463,2464,2459,2465
736,2131,2450,2457,2462,2455,2460,2464,2466
737,1960,2467,2468,1961,2469,2470,2471,1964
738,2472,2473,2468,2467,2474,2475,2470,2476
739,1947,1961,2468,2473,1971,2471,2475,2477
740,1878,1948,2478,2479,1952,2480,2481,2482
741,1947,2473,2478,1948,2477,2483,2480,1949
742,2472,2479,2478,2473,2484,2481,2483,2474
743,1960,2170,2485,2467,2174,2486,2487,2469
744,2165,2488,2485,2170,2489,2490,2486,2180
745,2472,2467,2485,2488,2476,2487,2490,2491
746,1878,2479,2492,2161,2482,2493,2494,2162
747,2472,2488,2492,2479,2491,2495,2493,2484
748,2165,2161,2492,2488,2167,2494,2495,2489
749,2107,2496,2497,2498,2499,2500,2501,2502
750,2020,2016,2497,2496,2022,2503,2500,2504
751,2015,2498,2497,2016,2505,2501,2503,2017
752,2277,2270,2506,2507,2281,2508,2509,2510
753,1913,1909,2506,2270,1915,2511,2508,2273
754,1908,2507,2506,1909,2512,2509,2511,1910
755,1900,2513,2514,1901,2515,2516,2517,1904
756,1994,1990,2514,2513,1996,2518,2516,2519
757,1908,1901,2514,1990,1912,2517,2518,1991
758,165,168,2520,1997,172,2521,2522,1999
759,178,1925,2520,168,1930,2523,2521,179
760,1924,1997,2520,1925,2005,2522,2523,1926
761,2414,2411,2524,2525,2416,2526,2527,2528
762,269,2002,2524,2411,2006,2529,2526,2412
763,1924,2525,2524,2002,2530,2527,2529,2003
764,343,2040,2531,2213,2044,2532,2533,2215
765,2039,2534,2531,2040,2535,2536,2532,2041
766,2206,2213,2531,2534,2221,2533,2536,2537
767,2053,2207,2538,2054,2212,2539,2540,2055
768,2206,2534,2538,2207,2537,2541,2539,2208
769,2039,2054,2538,2534,2059,2540,2541,2535
770,401,815,2542,2543,819,2544,2545,2546
771,295,2029,2542,815,2033,2547,2544,822
772,2028,2543,2542,2029,2548,2545,2547,2030
773,2182,2185,2549,2550,2189,2551,2552,2553
774,2195,2554,2549,2185,2555,2556,2551,2196
775,2557,2550,2549,2554,2558,2552,2556,2559
776,477,1712,2560,2561,1720,2562,2563,2564
777,409,2565,2560,1712,2566,2567,2562,1714
778,2400,2561,2560,2565,2568,2563,2567,2569
779,1884,2156,2570,2571,2160,2572,2573,2574
780,2165,2575,2570,2156,2576,2577,2572,2166
781,2246,2571,2570,2575,2578,2573,2577,2579
782,2380,2383,2580,2581,2387,2582,2583,2584
783,2120,2585,2580,2383,2586,2587,2582,2393
784,2557,2581,2580,2585,2588,2583,2587,2589
785,2292,2590,2591,2592,2593,2594,2595,2596
786,2597,2598,2591,2590,2599,2600,2594,2601
787,2388,2592,2591,2598,2602,2595,2600,2603
788,2120,2389,2604,2605,2394,2606,2607,2608
789,2388,2598,2604,2389,2603,2609,2606,2390
790,2597,2605,2604,2598,2610,2607,2609,2599
791,2292,2308,2611,2590,2311,2612,2613,2593
792,2020,2614,2611,2308,2615,2616,2612,2315
793,2597,2590,2611,2614,2601,2613,2616,2617
794,2618,2619,2620,2621,2622,2623,2624,2625
795,2626,2627,2620,2619,2628,2629,2623,2630
796,2414,2621,2620,2627,2631,2624,2629,2632
797,2618,2633,2634,2619,2635,2636,2637,2622
798,2638,2639,2634,2633,2640,2641,2636,2642
799,2626,2619,2634,2639,2630,2637,2641,2643
800,2028,2644,2645,2300,2646,2647,2648,2301
801,2626,2649,2645,2644,2650,2651,2647,2652
802,2304,2300,2645,2649,2306,2648,2651,2653
803,2461,2456,2654,2655,2465,2656,2657,2658
804,2195,2191,2654,2456,2197,2659,2656,2458
805,2190,2655,2654,2191,2660,2657,2659,2192
806,2442,2445,2661,2662,2449,2663,2664,2665
807,2131,2124,2661,2445,2135,2666,2663,2454
808,2123,2662,2661,2124,2667,2664,2666,2127
809,778,983,2668,2126,986,2669,2670,2136
810,485,2671,2668,983,2672,2673,2669,988
811,2123,2126,2668,2671,2130,2670,2673,2674
812,1824,2675,2676,1825,2677,2678,2679,1826
813,1786,2680,2676,2675,2681,2682,2678,2683
814,1816,1825,2676,2680,1829,2679,2682,2684
815,1778,1860,2685,1779,1865,2686,2687,1782
816,1816,2680,2685,1860,2684,2688,2686,1861
817,1786,1779,2685,2680,1790,2687,2688,2681
818,1824,2689,2690,2675,2691,2692,2693,2677
819,2694,2695,2690,2689,2696,2697,2692,2698
820,1786,2675,2690,2695,2683,2693,2697,2699
821,2694,2700,2701,2695,2702,2703,2704,2696
822,1791,1787,2701,2700,1793,2705,2703,2706
823,1786,2695,2701,1787,2699,2704,2705,1788
824,2151,2707,2708,2709,2710,2711,2712,2713
825,2175,2714,2708,2707,2715,2716,2711,2717
826,2060,2709,2708,2714,2718,2712,2716,2719
827,2304,2649,2720,2721,2653,2722,2723,2724
828,2626,2639,2720,2649,2643,2725,2722,2650
829,2638,2721,2720,2639,2726,2723,2725,2640
830,2020,2312,2727,2728,2316,2729,2730,2731
831,2304,2721,2727,2312,2724,2732,2729,2313
832,2638,2728,2727,2721,2733,2730,2732,2726
833,2618,2734,2735,2633,2736,2737,2738,2635
834,1982,2739,2735,2734,2740,2741,2737,2742
835,2638,2633,2735,2739,2642,2738,2741,2743
836,1960,2744,2745,2168,2746,2747,2748,2171
837,2068,2749,2745,2744,2750,2751,2747,2752
838,2175,2168,2745,2749,2179,2748,2751,2753
839,2060,2714,2754,2061,2719,2755,2756,2064
840,2175,2749,2754,2714,2753,2757,2755,2715
841,2068,2061,2754,2749,2072,2756,2757,2750
842,493,2758,2759,1103,2760,2761,2762,1106
843,2763,2764,2759,2758,2765,2766,2761,2767
844,14,1103,2759,2764,1113,2762,2766,2768
845,1759,1756,2769,2770,1761,2771,2772,2773
846,14,2764,2769,1756,2768,2774,2771,1757
847,2763,2770,2769,2764,2775,2772,2774,2765
848,1759,2770,2776,2777,2773,2778,2779,2780
849,2763,2781,2776,2770,2782,2783,2778,2775
850,2198,2777,2776,2781,2784,2779,2783,2785
851,2028,2786,2787,2543,2788,2789,2790,2548
852,2791,2792,2787,2786,2793,2794,2789,2795
853,401,2543,2787,2792,2546,2790,2794,2796
854,2400,2797,2798,2401,2799,2800,2801,2402
855,2791,2802,2798,2797,2803,2804,2800,2805
856,2388,2401,2798,2802,2405,2801,2804,2806
857,2414,2627,2807,2407,2632,2808,2809,2415
858,2626,2810,2807,2627,2811,2812,2808,2628
859,287,2407,2807,2810,2410,2809,2812,2813
860,2028,2023,2814,2644,2032,2815,2816,2646
861,287,2810,2814,2023,2813,2817,2815,2025
862,2626,2644,2814,2810,2652,2816,2817,2811
863,2175,2818,2819,2176,2820,2821,2822,2177
864,2146,2823,2819,2818,2824,2825,2821,2826
865,2165,2176,2819,2823,2181,2822,2825,2827
866,2246,2575,2828,2829,2579,2830,2831,2832
867,2165,2823,2828,2575,2827,2833,2830,2576
868,2146,2829,2828,2823,2834,2831,2833,2824
869,2175,2707,2835,2818,2717,2836,2837,2820
870,2151,2147,2835,2707,2153,2838,2836,2710
871,2146,2818,2835,2147,2826,2837,2838,2148
872,2246,2829,2839,2236,2832,2840,2841,2247
873,2146,2139,2839,2829,2150,2842,2840,2834
874,2138,2236,2839,2139,2240,2841,2842,2142
875,2123,2671,2843,2844,2674,2845,2846,2847
876,485,2229,2843,2671,2233,2848,2845,2672
877,2228,2844,2843,2229,2849,2846,2848,2230
878,2400,2850,2851,2561,2852,2853,2854,2568
879,2228,2223,2851,2850,2232,2855,2853,2856
880,477,2561,2851,2223,2564,2854,2855,2225
881,2020,2728,2857,2010,2731,2858,2859,2021
882,2638,2860,2857,2728,2861,2862,2858,2733
883,2007,2010,2857,2860,2014,2859,2862,2863
884,1982,2370,2864,2739,2378,2865,2866,2740
885,2007,2860,2864,2370,2863,2867,2865,2373
886,2638,2739,2864,2860,2743,2866,2867,2861
887,2557,2868,2869,2870,2871,2872,2873,2874
888,2875,2876,2869,2868,2877,2878,2872,2879
889,2228,2870,2869,2876,2880,2873,2878,2881
890,2123,2844,2882,2883,2847,2884,2885,2886
891,2228,2876,2882,2844,2881,2887,2884,2849
892,2875,2883,2882,2876,2888,2885,2887,2877
893,2123,2883,2889,2662,2886,2890,2891,2667
894,2875,2892,2889,2883,2893,2894,2890,2888
895,2442,2662,2889,2892,2665,2891,2894,2895
896,2896,2897,2898,2899,2900,2901,2902,2903
897,2904,2905,2898,2897,2906,2907,2901,2908
898,2429,2899,2898,2905,2909,2902,2907,2910
899,2911,2912,2913,2914,2915,2916,2917,2918
900,2896,2919,2913,2912,2920,2921,2916,2922
901,2277,2914,2913,2919,2923,2917,2921,2924
902,1936,2432,2925,2926,2440,2927,2928,2929
903,1892,2930,2925,2432,2931,2932,2927,2434
904,2933,2926,2925,2930,2934,2928,2932,2935
905,2911,2936,2937,2938,2939,2940,2941,2942
906,1916,2943,2937,2936,2944,2945,2940,2946
907,2933,2938,2937,2943,2947,2941,2945,2948
908,2277,2919,2949,2278,2924,2950,2951,2279
909,2896,2952,2949,2919,2953,2954,2950,2920
910,2282,2278,2949,2952,2284,2951,2954,2955
911,2429,2425,2956,2899,2431,2957,2958,2909
912,2282,2952,2956,2425,2955,2959,2957,2426
913,2896,2899,2956,2952,2903,2958,2959,2953
914,1916,2288,2960,2943,2291,2961,2962,2944
915,590,2963,2960,2288,2964,2965,2961,2289
916,2933,2943,2960,2963,2948,2962,2965,2966
917,1936,2926,2967,1937,2929,2968,2969,1938
918,2933,2963,2967,2926,2966,2970,2968,2934
919,590,1937,2967,2963,1941,2969,2970,2964
920,2120,2605,2971,2110,2608,2972,2973,2121
921,2597,2974,2971,2605,2975,2976,2972,2610
922,2107,2110,2971,2974,2114,2973,2976,2977
923,2020,2496,2978,2614,2504,2979,2980,2615
924,2107,2974,2978,2496,2977,2981,2979,2499
925,2597,2614,2978,2974,2617,2980,2981,2975
926,2982,2983,2984,2985,2986,2987,2988,2989
927,2990,2991,2984,2983,2992,2993,2987,2994
928,1908,2985,2984,2991,2995,2988,2993,2996
929,2277,2507,2997,2998,2510,2999,3000,3001
930,1908,2991,2997,2507,2996,3002,2999,2512
931,2990,2998,2997,2991,3003,3000,3002,2992
932,2277,2998,3004,2914,3001,3005,3006,2923
933,2990,3007,3004,2998,3008,3009,3005,3003
934,2911,2914,3004,3007,2918,3006,3009,3010
935,1916,3011,3012,1917,3013,3014,3015,1920
936,2990,3016,3012,3011,3017,3018,3014,3019
937,1924,1917,3012,3016,1928,3015,3018,3020
938,2982,3021,3022,2983,3023,3024,3025,2986
939,1924,3016,3022,3021,3020,3026,3024,3027
940,2990,2983,3022,3016,2994,3025,3026,3017
941,1916,2936,3028,3011,2946,3029,3030,3013
942,2911,3007,3028,2936,3010,3031,3029,2939
943,2990,3011,3028,3007,3019,3030,3031,3008
944,2982,3032,3033,3021,3034,3035,3036,3023
945,3037,3038,3033,3032,3039,3040,3035,3041
946,1924,3021,3033,3038,3027,3036,3040,3042
947,2414,2525,3043,3044,2528,3045,3046,3047
948,1924,3038,3043,2525,3042,3048,3045,2530
949,3037,3044,3043,3038,3049,3046,3048,3039
950,2982,3050,3051,3032,3052,3053,3054,3034
951,3055,3056,3051,3050,3057,3058,3053,3059
952,3037,3032,3051,3056,3041,3054,3058,3060
953,2414,3044,3061,2621,3047,3062,3063,2631
954,3037,3064,3061,3044,3065,3066,3062,3049
955,2618,2621,3061,3064,2625,3063,3066,3067
956,2618,3064,3068,3069,3067,3070,3071,3072
957,3037,3056,3068,3064,3060,3073,3070,3065
958,3055,3069,3068,3056,3074,3071,3073,3057
959,1982,2734,3075,3076,2742,3077,3078,3079
960,2618,3069,3075,2734,3072,3080,3077,2736
961,3055,3076,3075,3069,3081,3078,3080,3074
962,2982,2985,3082,3050,2989,3083,3084,3052
963,1908,3085,3082,2985,3086,3087,3083,2995
964,3055,3050,3082,3085,3059,3084,3087,3088
965,1982,3076,3089,1983,3079,3090,3091,1986
966,3055,3085,3089,3076,3088,3092,3090,3081
967,1908,1983,3089,3085,1993,3091,3092,3086
968,2388,2802,3093,2592,2806,3094,3095,2602
969,2791,3096,3093,2802,3097,3098,3094,2803
970,2292,2592,3093,3096,2596,3095,3098,3099
971,2028,2293,3100,2786,2303,3101,3102,2788
972,2292,3096,3100,2293,3099,3103,3101,2296
973,2791,2786,3100,3096,2795,3102,3103,3097
974,401,3104,3105,402,3106,3107,3108,405
975,3109,3110,3105,3104,3111,3112,3107,3113
976,409,402,3105,3110,413,3108,3112,3114
977,2400,2565,3115,3116,2569,3117,3118,3119
978,409,3110,3115,2565,3114,3120,3117,2566
979,3109,3116,3115,3110,3121,3118,3120,3111
980,401,2792,3122,3104,2796,3123,3124,3106
981,2791,3125,3122,2792,3126,3127,3123,2793
982,3109,3104,3122,3125,3113,3124,3127,3128
983,2400,3116,3129,2797,3119,3130,3131,2799
984,3109,3125,3129,3116,3128,3132,3130,3121
985,2791,2797,3129,3125,2805,3131,3132,3126
986,2131,3133,3134,3135,3136,3137,3138,3139
987,3140,3141,3134,3133,3142,3143,3137,3144
988,2039,3135,3134,3141,3145,3138,3143,3146
989,2045,2048,3147,3148,2052,3149,3150,3151
990,2039,3141,3147,2048,3146,3152,3149,2058
991,3140,3148,3147,3141,3153,3150,3152,3142
992,2131,2462,3154,3133,2466,3155,3156,3136
993,2461,3157,3154,2462,3158,3159,3155,2463
994,3140,3133,3154,3157,3144,3156,3159,3160
995,2045,3148,3161,3162,3151,3163,3164,3165
996,3140,3157,3161,3148,3160,3166,3163,3153
997,2461,3162,3161,3157,3167,3164,3166,3158
998,335,3168,3169,2034,3170,3171,3172,2036
999,3173,3174,3169,3168,3175,3176,3171,3177
1000,2039,2034,3169,3174,2043,3172,3176,3178
1001,2131,3135,3179,3180,3139,3181,3182,3183
1002,2039,3174,3179,3135,3178,3184,3181,3145
1003,3173,3180,3179,3174,3185,3182,3184,3175
1004,335,1499,3186,3168,1502,3187,3188,3170
1005,778,3189,3186,1499,3190,3191,3187,1504
1006,3173,3168,3186,3189,3177,3188,3191,3192
1007,2131,3180,3193,2132,3183,3194,3195,2133
1008,3173,3189,3193,3180,3192,3196,3194,3185
1009,778,2132,3193,3189,2137,3195,3196,3190
1010,1892,3197,3198,3199,3200,3201,3202,3203
1011,3204,3205,3198,3197,3206,3207,3201,3208
1012,2429,3199,3198,3205,3209,3202,3207,3210
1013,2246,3211,3212,3213,3214,3215,3216,3217
1014,3218,3219,3212,3211,3220,3221,3215,3222
1015,3204,3213,3212,3219,3223,3216,3221,3224
1016,1892,1885,3225,3197,1896,3226,3227,3200
1017,1884,3228,3225,1885,3229,3230,3226,1888
1018,3204,3197,3225,3228,3208,3227,3230,3231
1019,2246,3213,3232,2571,3217,3233,3234,2578
1020,3204,3228,3232,3213,3231,3235,3233,3223
1021,1884,2571,3232,3228,2574,3234,3235,3229
1022,1892,3236,3237,2930,3238,3239,3240,2931
1023,2904,3241,3237,3236,3242,3243,3239,3244
1024,2933,2930,3237,3241,2935,3240,3243,3245
1025,2911,2938,3246,3247,2942,3248,3249,3250
1026,2933,3241,3246,2938,3245,3251,3248,2947
1027,2904,3247,3246,3241,3252,3249,3251,3242
1028,1892,3199,3253,3236,3203,3254,3255,3238
1029,2429,2905,3253,3199,2910,3256,3254,3209
1030,2904,3236,3253,2905,3244,3255,3256,2906
1031,2911,3247,3257,2912,3250,3258,3259,2915
1032,2904,2897,3257,3247,2908,3260,3258,3252
1033,2896,2912,3257,2897,2922,3259,3260,2900
1034,493,2218,3261,2758,2222,3262,3263,2760
1035,2206,3264,3261,2218,3265,3266,3262,2219
1036,2763,2758,3261,3264,2767,3263,3266,3267
1037,2198,2781,3268,2199,2785,3269,3270,2202
1038,2763,3264,3268,2781,3267,3271,3269,2782
1039,2206,2199,3268,3264,2210,3270,3271,3265
1040,2557,2554,3272,2868,2559,3273,3274,2871
1041,2195,3275,3272,2554,3276,3277,3273,2555
1042,2875,2868,3272,3275,2879,3274,3277,3278
1043,2442,2892,3279,2443,2895,3280,3281,2446
1044,2875,3275,3279,2892,3278,3282,3280,2893
1045,2195,2443,3279,3275,2453,3281,3282,3276
1046,2400,2395,3283,2850,2404,3284,3285,2852
1047,2380,3286,3283,2395,3287,3288,3284,2397
1048,2228,2850,3283,3286,2856,3285,3288,3289
1049,2557,2870,3290,2581,2874,3291,3292,2588
1050,2228,3286,3290,2870,3289,3293,3291,2880
1051,2380,2581,3290,3286,2584,3292,3293,3287
1052,1936,3294,3295,2437,3296,3297,3298,2438
1053,3299,3300,3295,3294,3301,3302,3297,3303
1054,1897,2437,3295,3300,2441,3298,3302,3304
1055,545,2266,3305,3306,2269,3307,3308,3309
1056,1897,3300,3305,2266,3304,3310,3307,2267
1057,3299,3306,3305,3300,3311,3308,3310,3301
1058,1936,1931,3312,3294,1940,3313,3314,3296
1059,734,3315,3312,1931,3316,3317,3313,1933
1060,3299,3294,3312,3315,3303,3314,3317,3318
1061,545,3306,3319,1676,3309,3320,3321,1679
1062,3299,3315,3319,3306,3318,3322,3320,3311
1063,734,1676,3319,3315,1684,3321,3322,3316
1064,2429,3323,3324,2420,3325,3326,3327,2430
1065,3218,3328,3324,3323,3329,3330,3326,3331
1066,2417,2420,3324,3328,2424,3327,3330,3332
1067,2241,3333,3334,3335,3336,3337,3338,3339
1068,2417,3328,3334,3333,3332,3340,3337,3341
1069,3218,3335,3334,3328,3342,3338,3340,3329
1070,2429,3205,3343,3323,3210,3344,3345,3325
1071,3204,3219,3343,3205,3224,3346,3344,3206
1072,3218,3323,3343,3219,3331,3345,3346,3220
1073,2241,3335,3347,2242,3339,3348,3349,2243
1074,3218,3211,3347,3335,3222,3350,3348,3342
1075,2246,2242,3347,3211,2248,3349,3350,3214
1076,2115,3351,3352,2116,3353,3354,3355,2117
1077,3356,3357,3352,3351,3358,3359,3354,3360
1078,2120,2116,3352,3357,2122,3355,3359,3361
1079,2557,2585,3362,3363,2589,3364,3365,3366
1080,2120,3357,3362,2585,3361,3367,3364,2586
1081,3356,3363,3362,3357,3368,3365,3367,3358
1082,2115,3369,3370,3351,3371,3372,3373,3353
1083,2182,3374,3370,3369,3375,3376,3372,3377
1084,3356,3351,3370,3374,3360,3373,3376,3378
1085,2557,3363,3379,2550,3366,3380,3381,2558
1086,3356,3374,3379,3363,3378,3382,3380,3368
1087,2182,2550,3379,3374,2553,3381,3382,3375
1088,1972,2081,3383,3384,2085,3385,3386,3387
1089,2080,2094,3383,2081,2099,3388,3385,2082
1090,2093,3384,3383,2094,3389,3386,3388,2095
1091,1960,1963,3390,3391,1967,3392,3393,3394
1092,1972,3384,3390,1963,3387,3395,3392,1973
1093,2093,3391,3390,3384,3396,3393,3395,3389
1094,1852,2319,3397,2086,2323,3398,3399,2089
1095,2068,3400,3397,2319,3401,3402,3398,2328
1096,2093,2086,3397,3400,2097,3399,3402,3403
1097,1960,3391,3404,2744,3394,3405,3406,2746
1098,2093,3400,3404,3391,3403,3407,3405,3396
1099,2068,2744,3404,3400,2752,3406,3407,3401
1100,1,1752,3408,3409,1755,3410,3411,3412
1101,1759,3413,3408,1752,3414,3415,3410,1760
1102,3416,3409,3408,3413,3417,3411,3415,3418
1103,3419,3420,3421,3422,3423,3424,3425,3426
1104,3427,3428,3421,3420,3429,3430,3424,3431
1105,3432,3422,3421,3428,3433,3425,3430,3434
1106,3435,3436,3437,3438,3439,3440,3441,3442
1107,3432,3443,3437,3436,3444,3445,3440,3446
1108,3447,3438,3437,3443,3448,3441,3445,3449
1109,1775,3450,3451,3452,3453,3454,3455,3456
1110,3457,3458,3451,3450,3459,3460,3454,3461
1111,3462,3452,3451,3458,3463,3455,3460,3464
1112,3457,3465,3466,3458,3467,3468,3469,3459
1113,3470,3471,3466,3465,3472,3473,3468,3474
1114,3462,3458,3466,3471,3464,3469,3473,3475
1115,3447,3476,3477,3438,3478,3479,3480,3448
1116,3481,3482,3477,3476,3483,3484,3479,3485
1117,3435,3438,3477,3482,3442,3480,3484,3486
1118,3462,3487,3488,3452,3489,3490,3491,3463
1119,3492,3493,3488,3487,3494,3495,3490,3496
1120,1775,3452,3488,3493,3456,3491,3495,3497
1121,3498,3499,3500,3501,3502,3503,3504,3505
1122,3432,3436,3500,3499,3446,3506,3503,3507
1123,3435,3501,3500,3436,3508,3504,3506,3439
1124,3509,3510,3511,3512,3513,3514,3515,3516
1125,3462,3517,3511,3510,3518,3519,3514,3520
1126,3447,3512,3511,3517,3521,3515,3519,3522
1127,1775,1842,3523,3450,1850,3524,3525,3453
1128,1841,3526,3523,1842,3527,3528,3524,1845
1129,3457,3450,3523,3526,3461,3525,3528,3529
1130,2151,3530,3531,2141,3532,3533,3534,2152
1131,3535,3536,3531,3530,3537,3538,3533,3539
1132,2138,2141,3531,3536,2145,3534,3538,3540
1133,3541,3542,3543,3544,3545,3546,3547,3548
1134,3549,3550,3543,3542,3551,3552,3546,3553
1135,3554,3544,3543,3550,3555,3547,3552,3556
1136,3557,3558,3559,3560,3561,3562,3563,3564
1137,3565,3566,3559,3558,3567,3568,3562,3569
1138,3570,3560,3559,3566,3571,3563,3568,3572
1139,3573,3574,3575,3576,3577,3578,3579,3580
1140,3581,3582,3575,3574,3583,3584,3578,3585
1141,1913,3576,3575,3582,3586,3579,3584,3587
1142,2417,3588,3589,2418,3590,3591,3592,2421
1143,3593,3594,3589,3588,3595,3596,3591,3597
1144,2282,2418,3589,3594,2428,3592,3596,3598
1145,2151,2709,3599,3600,2713,3601,3602,3603
1146,2060,3604,3599,2709,3605,3606,3601,2718
1147,3607,3600,3599,3604,3608,3602,3606,3609
1148,2151,3600,3610,3530,3603,3611,3612,3532
1149,3607,3613,3610,3600,3614,3615,3611,3608
1150,3535,3530,3610,3613,3539,3612,3615,3616
1151,3617,3618,3619,3620,3621,3622,3623,3624
1152,3607,3625,3619,3618,3626,3627,3622,3628
1153,3629,3620,3619,3625,3630,3623,3627,3631
1154,2060,3632,3633,3604,3634,3635,3636,3605
1155,3629,3625,3633,3632,3631,3637,3635,3638
1156,3607,3604,3633,3625,3609,3636,3637,3626
1157,3639,3640,3641,3642,3643,3644,3645,3646
1158,3565,3647,3641,3640,3648,3649,3644,3650
1159,3651,3642,3641,3647,3652,3645,3649,3653
1160,1900,3654,3655,2513,3656,3657,3658,2515
1161,3581,3659,3655,3654,3660,3661,3657,3662
1162,1994,2513,3655,3659,2519,3658,3661,3663
1163,3664,3665,3666,3667,3668,3669,3670,3671
1164,3672,3673,3666,3665,3674,3675,3669,3676
1165,3677,3667,3666,3673,3678,3670,3675,3679
1166,2007,3680,3681,2008,3682,3683,3684,2011
1167,3685,3686,3681,3680,3687,3688,3683,3689
1168,2015,2008,3681,3686,2019,3684,3688,3690
1169,2045,3691,3692,2046,3693,3694,3695,2049
1170,3696,3697,3692,3691,3698,3699,3694,3700
1171,2053,2046,3692,3697,2057,3695,3699,3701
1172,3702,3703,3704,3705,3706,3707,3708,3709
1173,3710,3711,3704,3703,3712,3713,3707,3714
1174,3696,3705,3704,3711,3715,3708,3713,3716
1175,3717,3718,3719,3720,3721,3722,3723,3724
1176,3725,3726,3719,3718,3727,3728,3722,3729
1177,3419,3720,3719,3726,3730,3723,3728,3731
1178,2060,3732,3733,3632,3734,3735,3736,3634
1179,3737,3738,3733,3732,3739,3740,3735,3741
1180,3629,3632,3733,3738,3638,3736,3740,3742
1181,3509,3743,3744,3745,3746,3747,3748,3749
1182,3750,3751,3744,3743,3752,3753,3747,3754
1183,3737,3745,3744,3751,3755,3748,3753,3756
1184,2060,2063,3757,3732,2067,3758,3759,3734
1185,1762,3760,3757,2063,3761,3762,3758,2073
1186,3737,3732,3757,3760,3741,3759,3762,3763
1187,3764,3765,3766,3767,3768,3769,3770,3771
1188,3772,3773,3766,3765,3774,3775,3769,3776
1189,3777,3767,3766,3773,3778,3770,3775,3779
1190,3780,3781,3782,3783,3784,3785,3786,3787
1191,3788,3789,3782,3781,3790,3791,3785,3792
1192,2461,3783,3782,3789,3793,3786,3791,3794
1193,3795,3796,3797,3798,3799,3800,3801,3802
1194,3803,3804,3797,3796,3805,3806,3800,3807
1195,3808,3798,3797,3804,3809,3801,3806,3810
1196,3617,3811,3812,3813,3814,3815,3816,3817
1197,3818,3819,3812,3811,3820,3821,3815,3822
1198,3823,3813,3812,3819,3824,3816,3821,3825
1199,3541,3826,3827,3828,3829,3830,3831,3832
1200,3535,3833,3827,3826,3834,3835,3830,3836
1201,3823,3828,3827,3833,3837,3831,3835,3838
1202,3839,3840,3841,3842,3843,3844,3845,3846
1203,3847,3848,3841,3840,3849,3850,3844,3851
1204,3852,3842,3841,3848,3853,3845,3850,3854
1205,3855,3856,3857,3858,3859,3860,3861,3862
1206,3863,3864,3857,3856,3865,3866,3860,3867
1207,3710,3858,3857,3864,3868,3861,3866,3869
1208,2053,3870,3871,2201,3872,3873,3874,2211
1209,3863,3875,3871,3870,3876,3877,3873,3878
1210,2198,2201,3871,3875,2205,3874,3877,3879
1211,2182,3880,3881,2183,3882,3883,3884,2186
1212,3885,3886,3881,3880,3887,3888,3883,3889
1213,2190,2183,3881,3886,2194,3884,3888,3890
1214,3795,3891,3892,3893,3894,3895,3896,3897
1215,3898,3899,3892,3891,3900,3901,3895,3902
1216,3903,3893,3892,3899,3904,3896,3901,3905
1217,3541,3544,3906,3826,3548,3907,3908,3829
1218,3554,3909,3906,3544,3910,3911,3907,3555
1219,3535,3826,3906,3909,3836,3908,3911,3912
1220,2138,3536,3913,3914,3540,3915,3916,3917
1221,3535,3909,3913,3536,3912,3918,3915,3537
1222,3554,3914,3913,3909,3919,3916,3918,3910
1223,2138,3914,3920,2234,3917,3921,3922,2237
1224,3554,3923,3920,3914,3924,3925,3921,3919
1225,2241,2234,3920,3923,2245,3922,3925,3926
1226,3570,3927,3928,3929,3930,3931,3932,3933
1227,3934,3935,3928,3927,3936,3937,3931,3938
1228,3939,3929,3928,3935,3940,3932,3937,3941
1229,1913,2272,3942,3576,2276,3943,3944,3586
1230,2282,3945,3942,2272,3946,3947,3943,2283
1231,3573,3576,3942,3945,3580,3944,3947,3948
1232,3949,3950,3951,3952,3953,3954,3955,3956
1233,3685,3957,3951,3950,3958,3959,3954,3960
1234,3961,3952,3951,3957,3962,3955,3959,3963
1235,3949,3952,3964,3965,3956,3966,3967,3968
1236,3961,3969,3964,3952,3970,3971,3966,3962
1237,3677,3965,3964,3969,3972,3967,3971,3973
1238,3509,3974,3975,3976,3977,3978,3979,3980
1239,3427,3981,3975,3974,3982,3983,3978,3984
1240,3725,3976,3975,3981,3985,3979,3983,3986
1241,3419,3726,3987,3420,3731,3988,3989,3423
1242,3725,3981,3987,3726,3986,3990,3988,3727
1243,3427,3420,3987,3981,3431,3989,3990,3982
1244,3509,3512,3991,3974,3516,3992,3993,3977
1245,3447,3994,3991,3512,3995,3996,3992,3521
1246,3427,3974,3991,3994,3984,3993,3996,3997
1247,3447,3443,3998,3994,3449,3999,4000,3995
1248,3432,3428,3998,3443,3434,4001,3999,3444
1249,3427,3994,3998,3428,3997,4000,4001,3429
1250,3509,4002,4003,3510,4004,4005,4006,3513
1251,3492,3487,4003,4002,3496,4007,4005,4008
1252,3462,3510,4003,3487,3520,4006,4007,3489
1253,1762,1765,4009,4010,1769,4011,4012,4013
1254,1775,3493,4009,1765,3497,4014,4011,1776
1255,3492,4010,4009,3493,4015,4012,4014,3494
1256,3509,3745,4016,4002,3749,4017,4018,4004
1257,3737,4019,4016,3745,4020,4021,4017,3755
1258,3492,4002,4016,4019,4008,4018,4021,4022
1259,1762,4010,4023,3760,4013,4024,4025,3761
1260,3492,4019,4023,4010,4022,4026,4024,4015
1261,3737,3760,4023,4019,3763,4025,4026,4020
1262,3664,4027,4028,4029,4030,4031,4032,4033
1263,3639,3642,4028,4027,3646,4034,4031,4035
1264,3651,4029,4028,3642,4036,4032,4034,3652
1265,4037,4038,4039,4040,4041,4042,4043,4044
1266,4045,4046,4039,4038,4047,4048,4042,4049
1267,3777,4040,4039,4046,4050,4043,4048,4051
1268,4037,4052,4053,4038,4054,4055,4056,4041
1269,4057,4058,4053,4052,4059,4060,4055,4061
1270,4045,4038,4053,4058,4049,4056,4060,4062
1271,2007,2372,4063,4064,2376,4065,4066,4067
1272,1994,4068,4063,2372,4069,4070,4065,2379
1273,4071,4064,4063,4068,4072,4066,4070,4073
1274,4074,4075,4076,4077,4078,4079,4080,4081
1275,3939,4082,4076,4075,4083,4084,4079,4085
1276,4086,4077,4076,4082,4087,4080,4084,4088
1277,3549,4089,4090,3550,4091,4092,4093,3551
1278,3593,4094,4090,4089,4095,4096,4092,4097
1279,3554,3550,4090,4094,3556,4093,4096,4098
1280,4099,4100,4101,4102,4103,4104,4105,4106
1281,3852,4107,4101,4100,4108,4109,4104,4110
1282,3788,4102,4101,4107,4111,4105,4109,4112
1283,3852,4113,4114,4107,4115,4116,4117,4108
1284,4118,4119,4114,4113,4120,4121,4116,4122
1285,3788,4107,4114,4119,4112,4117,4121,4123
1286,3617,4124,4125,3618,4126,4127,4128,3621
1287,4129,4130,4125,4124,4131,4132,4127,4133
1288,3607,3618,4125,4130,3628,4128,4132,4134
1289,3535,3613,4135,4136,3616,4137,4138,4139
1290,3607,4130,4135,3613,4134,4140,4137,3614
1291,4129,4136,4135,4130,4141,4138,4140,4131
1292,3617,3813,4142,4124,3817,4143,4144,4126
1293,3823,4145,4142,3813,4146,4147,4143,3824
1294,4129,4124,4142,4145,4133,4144,4147,4148
1295,3535,4136,4149,3833,4139,4150,4151,3834
1296,4129,4145,4149,4136,4148,4152,4150,4141
1297,3823,3833,4149,4145,3838,4151,4152,4146
1298,3764,4153,4154,4155,4156,4157,4158,4159
1299,3677,3673,4154,4153,3679,4160,4157,4161
1300,3672,4155,4154,3673,4162,4158,4160,3674
1301,3934,3927,4163,4164,3938,4165,4166,4167
1302,3570,3566,4163,3927,3572,4168,4165,3930
1303,3565,4164,4163,3566,4169,4166,4168,3567
1304,3557,4170,4171,3558,4172,4173,4174,3561
1305,3651,3647,4171,4170,3653,4175,4173,4176
1306,3565,3558,4171,3647,3569,4174,4175,3648
1307,1900,1903,4177,3654,1907,4178,4179,3656
1308,1913,3582,4177,1903,3587,4180,4178,1914
1309,3581,3654,4177,3582,3662,4179,4180,3583
1310,4071,4068,4181,4182,4073,4183,4184,4185
1311,1994,3659,4181,4068,3663,4186,4183,4069
1312,3581,4182,4181,3659,4187,4184,4186,3660
1313,2053,3697,4188,3870,3701,4189,4190,3872
1314,3696,4191,4188,3697,4192,4193,4189,3698
1315,3863,3870,4188,4191,3878,4190,4193,4194
1316,3710,3864,4195,3711,3869,4196,4197,3712
1317,3863,4191,4195,3864,4194,4198,4196,3865
1318,3696,3711,4195,4191,3716,4197,4198,4192
1319,2107,2498,4199,4200,2502,4201,4202,4203
1320,2015,3686,4199,2498,3690,4204,4201,2505
1321,3685,4200,4199,3686,4205,4202,4204,3687
1322,3839,3842,4206,4207,3846,4208,4209,4210
1323,3852,4211,4206,3842,4212,4213,4208,3853
1324,4214,4207,4206,4211,4215,4209,4213,4216
1325,2182,3369,4217,4218,3377,4219,4220,4221
1326,2115,4222,4217,3369,4223,4224,4219,3371
1327,4057,4218,4217,4222,4225,4220,4224,4226
1328,3541,3828,4227,4228,3832,4229,4230,4231
1329,3823,4232,4227,3828,4233,4234,4229,3837
1330,3903,4228,4227,4232,4235,4230,4234,4236
1331,4037,4040,4237,4238,4044,4239,4240,4241
1332,3777,4242,4237,4040,4243,4244,4239,4050
1333,4214,4238,4237,4242,4245,4240,4244,4246
1334,3949,4247,4248,4249,4250,4251,4252,4253
1335,4254,4255,4248,4247,4256,4257,4251,4258
1336,4045,4249,4248,4255,4259,4252,4257,4260
1337,3777,4046,4261,4262,4051,4263,4264,4265
1338,4045,4255,4261,4046,4260,4266,4263,4047
1339,4254,4262,4261,4255,4267,4264,4266,4256
1340,3949,3965,4268,4247,3968,4269,4270,4250
1341,3677,4271,4268,3965,4272,4273,4269,3972
1342,4254,4247,4268,4271,4258,4270,4273,4274
1343,4275,4276,4277,4278,4279,4280,4281,4282
1344,4283,4284,4277,4276,4285,4286,4280,4287
1345,4071,4278,4277,4284,4288,4281,4286,4289
1346,4275,4290,4291,4276,4292,4293,4294,4279
1347,4295,4296,4291,4290,4297,4298,4293,4299
1348,4283,4276,4291,4296,4287,4294,4298,4300
1349,3685,4301,4302,3957,4303,4304,4305,3958
1350,4283,4306,4302,4301,4307,4308,4304,4309
1351,3961,3957,4302,4306,3963,4305,4308,4310
1352,4118,4113,4311,4312,4122,4313,4314,4315
1353,3852,3848,4311,4113,3854,4316,4313,4115
1354,3847,4312,4311,3848,4317,4314,4316,3849
1355,4099,4102,4318,4319,4106,4320,4321,4322
1356,3788,3781,4318,4102,3792,4323,4320,4111
1357,3780,4319,4318,3781,4324,4321,4323,3784
1358,2461,2655,4325,3783,2658,4326,4327,3793
1359,2190,4328,4325,2655,4329,4330,4326,2660
1360,3780,3783,4325,4328,3787,4327,4330,4331
1361,3470,4332,4333,3471,4334,4335,4336,3472
1362,3481,4337,4333,4332,4338,4339,4335,4340
1363,3462,3471,4333,4337,3475,4336,4339,4341
1364,3447,3517,4342,3476,3522,4343,4344,3478
1365,3462,4337,4342,3517,4341,4345,4343,3518
1366,3481,3476,4342,4337,3485,4344,4345,4338
1367,3470,4346,4347,4332,4348,4349,4350,4334
1368,4351,4352,4347,4346,4353,4354,4349,4355
1369,3481,4332,4347,4352,4340,4350,4354,4356
1370,4351,4357,4358,4352,4359,4360,4361,4353
1371,3435,3482,4358,4357,3486,4362,4360,4363
1372,3481,4352,4358,3482,4356,4361,4362,3483
1373,3808,4364,4365,4366,4367,4368,4369,4370
1374,3818,4371,4365,4364,4372,4373,4368,4374
1375,3717,4366,4365,4371,4375,4369,4373,4376
1376,3961,4306,4377,4378,4310,4379,4380,4381
1377,4283,4296,4377,4306,4300,4382,4379,4307
1378,4295,4378,4377,4296,4383,4380,4382,4297
1379,3677,3969,4384,4385,3973,4386,4387,4388
1380,3961,4378,4384,3969,4381,4389,4386,3970
1381,4295,4385,4384,4378,4390,4387,4389,4383
1382,4275,4391,4392,4290,4393,4394,4395,4292
1383,3639,4396,4392,4391,4397,4398,4394,4399
1384,4295,4290,4392,4396,4299,4395,4398,4400
1385,3617,4401,4402,3811,4403,4404,4405,3814
1386,3725,4406,4402,4401,4407,4408,4404,4409
1387,3818,3811,4402,4406,3822,4405,4408,4410
1388,3717,4371,4411,3718,4376,4412,4413,3721
1389,3818,4406,4411,4371,4410,4414,4412,4372
1390,3725,3718,4411,4406,3729,4413,4414,4407
1391,2198,4415,4416,2777,4417,4418,4419,2784
1392,4420,4421,4416,4415,4422,4423,4418,4424
1393,1759,2777,4416,4421,2780,4419,4423,4425
1394,3416,3413,4426,4427,3418,4428,4429,4430
1395,1759,4421,4426,3413,4425,4431,4428,3414
1396,4420,4427,4426,4421,4432,4429,4431,4422
1397,3416,4427,4433,4434,4430,4435,4436,4437
1398,4420,4438,4433,4427,4439,4440,4435,4432
1399,3855,4434,4433,4438,4441,4436,4440,4442
1400,3685,4443,4444,4200,4445,4446,4447,4205
1401,4448,4449,4444,4443,4450,4451,4446,4452
1402,2107,4200,4444,4449,4203,4447,4451,4453
1403,4057,4454,4455,4058,4456,4457,4458,4059
1404,4448,4459,4455,4454,4460,4461,4457,4462
1405,4045,4058,4455,4459,4062,4458,4461,4463
1406,4071,4284,4464,4064,4289,4465,4466,4072
1407,4283,4467,4464,4284,4468,4469,4465,4285
1408,2007,4064,4464,4467,4067,4466,4469,4470
1409,3685,3680,4471,4301,3689,4472,4473,4303
1410,2007,4467,4471,3680,4470,4474,4472,3682
1411,4283,4301,4471,4467,4309,4473,4474,4468
1412,3903,4475,4476,3893,4477,4478,4479,3904
1413,3803,3796,4476,4475,3807,4480,4478,4481
1414,3795,3893,4476,3796,3897,4479,4480,3799
1415,3818,4364,4482,4483,4374,4484,4485,4486
1416,3808,3804,4482,4364,3810,4487,4484,4367
1417,3803,4483,4482,3804,4488,4485,4487,3805
1418,3903,4232,4489,4475,4236,4490,4491,4477
1419,3823,4492,4489,4232,4493,4494,4490,4233
1420,3803,4475,4489,4492,4481,4491,4494,4495
1421,3818,4483,4496,3819,4486,4497,4498,3820
1422,3803,4492,4496,4483,4495,4499,4497,4488
1423,3823,3819,4496,4492,3825,4498,4499,4493
1424,3780,4328,4500,4501,4331,4502,4503,4504
1425,2190,3886,4500,4328,3890,4505,4502,4329
1426,3885,4501,4500,3886,4506,4503,4505,3887
1427,4057,4507,4508,4218,4509,4510,4511,4225
1428,3885,3880,4508,4507,3889,4512,4510,4513
1429,2182,4218,4508,3880,4221,4511,4512,3882
1430,3677,4385,4514,3667,4388,4515,4516,3678
1431,4295,4517,4514,4385,4518,4519,4515,4390
1432,3664,3667,4514,4517,3671,4516,4519,4520
1433,3639,4027,4521,4396,4035,4522,4523,4397
1434,3664,4517,4521,4027,4520,4524,4522,4030
1435,4295,4396,4521,4517,4400,4523,4524,4518
1436,4214,4525,4526,4527,4528,4529,4530,4531
1437,4532,4533,4526,4525,4534,4535,4529,4536
1438,3885,4527,4526,4533,4537,4530,4535,4538
1439,3780,4501,4539,4540,4504,4541,4542,4543
1440,3885,4533,4539,4501,4538,4544,4541,4506
1441,4532,4540,4539,4533,4545,4542,4544,4534
1442,3780,4540,4546,4319,4543,4547,4548,4324
1443,4532,4549,4546,4540,4550,4551,4547,4545
1444,4099,4319,4546,4549,4322,4548,4551,4552
1445,4553,4554,4555,4556,4557,4558,4559,4560
1446,4561,4562,4555,4554,4563,4564,4558,4565
1447,4086,4556,4555,4562,4566,4559,4564,4567
1448,4568,4569,4570,4571,4572,4573,4574,4575
1449,4553,4576,4570,4569,4577,4578,4573,4579
1450,3934,4571,4570,4576,4580,4574,4578,4581
1451,3593,4089,4582,4583,4097,4584,4585,4586
1452,3549,4587,4582,4089,4588,4589,4584,4091
1453,4590,4583,4582,4587,4591,4585,4589,4592
1454,4568,4593,4594,4595,4596,4597,4598,4599
1455,3573,4600,4594,4593,4601,4602,4597,4603
1456,4590,4595,4594,4600,4604,4598,4602,4605
1457,3934,4576,4606,3935,4581,4607,4608,3936
1458,4553,4609,4606,4576,4610,4611,4607,4577
1459,3939,3935,4606,4609,3941,4608,4611,4612
1460,4086,4082,4613,4556,4088,4614,4615,4566
1461,3939,4609,4613,4082,4612,4616,4614,4083
1462,4553,4556,4613,4609,4560,4615,4616,4610
1463,3573,3945,4617,4600,3948,4618,4619,4601
1464,2282,4620,4617,3945,4621,4622,4618,3946
1465,4590,4600,4617,4620,4605,4619,4622,4623
1466,3593,4583,4624,3594,4586,4625,4626,3595
1467,4590,4620,4624,4583,4623,4627,4625,4591
1468,2282,3594,4624,4620,3598,4626,4627,4621
1469,3777,4262,4628,3767,4265,4629,4630,3778
1470,4254,4631,4628,4262,4632,4633,4629,4267
1471,3764,3767,4628,4631,3771,4630,4633,4634
1472,3677,4153,4635,4271,4161,4636,4637,4272
1473,3764,4631,4635,4153,4634,4638,4636,4156
1474,4254,4271,4635,4631,4274,4637,4638,4632
1475,4639,4640,4641,4642,4643,4644,4645,4646
1476,4647,4648,4641,4640,4649,4650,4644,4651
1477,3565,4642,4641,4648,4652,4645,4650,4653
1478,3934,4164,4654,4655,4167,4656,4657,4658
1479,3565,4648,4654,4164,4653,4659,4656,4169
1480,4647,4655,4654,4648,4660,4657,4659,4649
1481,3934,4655,4661,4571,4658,4662,4663,4580
1482,4647,4664,4661,4655,4665,4666,4662,4660
1483,4568,4571,4661,4664,4575,4663,4666,4667
1484,3573,4668,4669,3574,4670,4671,4672,3577
1485,4647,4673,4669,4668,4674,4675,4671,4676
1486,3581,3574,4669,4673,3585,4672,4675,4677
1487,4639,4678,4679,4640,4680,4681,4682,4643
1488,3581,4673,4679,4678,4677,4683,4681,4684
1489,4647,4640,4679,4673,4651,4682,4683,4674
1490,3573,4593,4685,4668,4603,4686,4687,4670
1491,4568,4664,4685,4593,4667,4688,4686,4596
1492,4647,4668,4685,4664,4676,4687,4688,4665
1493,4639,4689,4690,4678,4691,4692,4693,4680
1494,4694,4695,4690,4689,4696,4697,4692,4698
1495,3581,4678,4690,4695,4684,4693,4697,4699
1496,4071,4182,4700,4701,4185,4702,4703,4704
1497,3581,4695,4700,4182,4699,4705,4702,4187
1498,4694,4701,4700,4695,4706,4703,4705,4696
1499,4639,4707,4708,4689,4709,4710,4711,4691
1500,4712,4713,4708,4707,4714,4715,4710,4716
1501,4694,4689,4708,4713,4698,4711,4715,4717
1502,4071,4701,4718,4278,4704,4719,4720,4288
1503,4694,4721,4718,4701,4722,4723,4719,4706
1504,4275,4278,4718,4721,4282,4720,4723,4724
1505,4275,4721,4725,4726,4724,4727,4728,4729
1506,4694,4713,4725,4721,4717,4730,4727,4722
1507,4712,4726,4725,4713,4731,4728,4730,4714
1508,3639,4391,4732,4733,4399,4734,4735,4736
1509,4275,4726,4732,4391,4729,4737,4734,4393
1510,4712,4733,4732,4726,4738,4735,4737,4731
1511,4639,4642,4739,4707,4646,4740,4741,4709
1512,3565,4742,4739,4642,4743,4744,4740,4652
1513,4712,4707,4739,4742,4716,4741,4744,4745
1514,3639,4733,4746,3640,4736,4747,4748,3643
1515,4712,4742,4746,4733,4745,4749,4747,4738
1516,3565,3640,4746,4742,3650,4748,4749,4743
1517,3685,3950,4750,4443,3960,4751,4752,4445
1518,3949,4753,4750,3950,4754,4755,4751,3953
1519,4448,4443,4750,4753,4452,4752,4755,4756
1520,4045,4459,4757,4249,4463,4758,4759,4259
1521,4448,4753,4757,4459,4756,4760,4758,4460
1522,3949,4249,4757,4753,4253,4759,4760,4754
1523,4057,4761,4762,4454,4763,4764,4765,4456
1524,4766,4767,4762,4761,4768,4769,4764,4770
1525,4448,4454,4762,4767,4462,4765,4769,4771
1526,2107,4449,4772,4773,4453,4774,4775,4776
1527,4448,4767,4772,4449,4771,4777,4774,4450
1528,4766,4773,4772,4767,4778,4775,4777,4768
1529,4057,4222,4779,4761,4226,4780,4781,4763
1530,2115,4782,4779,4222,4783,4784,4780,4223
1531,4766,4761,4779,4782,4770,4781,4784,4785
1532,2107,4773,4786,2108,4776,4787,4788,2111
1533,4766,4782,4786,4773,4785,4789,4787,4778
1534,2115,2108,4786,4782,2119,4788,4789,4783
1535,3788,4790,4791,4792,4793,4794,4795,4796
1536,4797,4798,4791,4790,4799,4800,4794,4801
1537,3696,4792,4791,4798,4802,4795,4800,4803
1538,3702,3705,4804,4805,3709,4806,4807,4808
1539,3696,4798,4804,3705,4803,4809,4806,3715
1540,4797,4805,4804,4798,4810,4807,4809,4799
1541,3788,4119,4811,4790,4123,4812,4813,4793
1542,4118,4814,4811,4119,4815,4816,4812,4120
1543,4797,4790,4811,4814,4801,4813,4816,4817
1544,3702,4805,4818,4819,4808,4820,4821,4822
1545,4797,4814,4818,4805,4817,4823,4820,4810
1546,4118,4819,4818,4814,4824,4821,4823,4815
1547,2045,4825,4826,3691,4827,4828,4829,3693
1548,4830,4831,4826,4825,4832,4833,4828,4834
1549,3696,3691,4826,4831,3700,4829,4833,4835
1550,3788,4792,4836,4837,4796,4838,4839,4840
1551,3696,4831,4836,4792,4835,4841,4838,4802
1552,4830,4837,4836,4831,4842,4839,4841,4832
1553,2045,3162,4843,4825,3165,4844,4845,4827
1554,2461,4846,4843,3162,4847,4848,4844,3167
1555,4830,4825,4843,4846,4834,4845,4848,4849
1556,3788,4837,4850,3789,4840,4851,4852,3790
1557,4830,4846,4850,4837,4849,4853,4851,4842
1558,2461,3789,4850,4846,3794,4852,4853,4847
1559,3549,4854,4855,4856,4857,4858,4859,4860
1560,4861,4862,4855,4854,4863,4864,4858,4865
1561,4086,4856,4855,4862,4866,4859,4864,4867
1562,3903,4868,4869,4870,4871,4872,4873,4874
1563,4875,4876,4869,4868,4877,4878,4872,4879
1564,4861,4870,4869,4876,4880,4873,4878,4881
1565,3549,3542,4882,4854,3553,4883,4884,4857
1566,3541,4885,4882,3542,4886,4887,4883,3545
1567,4861,4854,4882,4885,4865,4884,4887,4888
1568,3903,4870,4889,4228,4874,4890,4891,4235
1569,4861,4885,4889,4870,4888,4892,4890,4880
1570,3541,4228,4889,4885,4231,4891,4892,4886
1571,3549,4893,4894,4587,4895,4896,4897,4588
1572,4561,4898,4894,4893,4899,4900,4896,4901
1573,4590,4587,4894,4898,4592,4897,4900,4902
1574,4568,4595,4903,4904,4599,4905,4906,4907
1575,4590,4898,4903,4595,4902,4908,4905,4604
1576,4561,4904,4903,4898,4909,4906,4908,4899
1577,3549,4856,4910,4893,4860,4911,4912,4895
1578,4086,4562,4910,4856,4567,4913,4911,4866
1579,4561,4893,4910,4562,4901,4912,4913,4563
1580,4568,4904,4914,4569,4907,4915,4916,4572
1581,4561,4554,4914,4904,4565,4917,4915,4909
1582,4553,4569,4914,4554,4579,4916,4917,4557
1583,2198,3875,4918,4415,3879,4919,4920,4417
1584,3863,4921,4918,3875,4922,4923,4919,3876
1585,4420,4415,4918,4921,4424,4920,4923,4924
1586,3855,4438,4925,3856,4442,4926,4927,3859
1587,4420,4921,4925,4438,4924,4928,4926,4439
1588,3863,3856,4925,4921,3867,4927,4928,4922
1589,4214,4211,4929,4525,4216,4930,4931,4528
1590,3852,4932,4929,4211,4933,4934,4930,4212
1591,4532,4525,4929,4932,4536,4931,4934,4935
1592,4099,4549,4936,4100,4552,4937,4938,4103
1593,4532,4932,4936,4549,4935,4939,4937,4550
1594,3852,4100,4936,4932,4110,4938,4939,4933
1595,4057,4052,4940,4507,4061,4941,4942,4509
1596,4037,4943,4940,4052,4944,4945,4941,4054
1597,3885,4507,4940,4943,4513,4942,4945,4946
1598,4214,4527,4947,4238,4531,4948,4949,4245
1599,3885,4943,4947,4527,4946,4950,4948,4537
1600,4037,4238,4947,4943,4241,4949,4950,4944
1601,3593,4951,4952,4094,4953,4954,4955,4095
1602,4956,4957,4952,4951,4958,4959,4954,4960
1603,3554,4094,4952,4957,4098,4955,4959,4961
1604,2241,3923,4962,4963,3926,4964,4965,4966
1605,3554,4957,4962,3923,4961,4967,4964,3924
1606,4956,4963,4962,4957,4968,4965,4967,4958
1607,3593,3588,4969,4951,3597,4970,4971,4953
1608,2417,4972,4969,3588,4973,4974,4970,3590
1609,4956,4951,4969,4972,4960,4971,4974,4975
1610,2241,4963,4976,3333,4966,4977,4978,3336
1611,4956,4972,4976,4963,4975,4979,4977,4968
1612,2417,3333,4976,4972,3341,4978,4979,4973
1613,4086,4980,4981,4077,4982,4983,4984,4087
1614,4875,4985,4981,4980,4986,4987,4983,4988
1615,4074,4077,4981,4985,4081,4984,4987,4989
1616,3898,4990,4991,4992,4993,4994,4995,4996
1617,4074,4985,4991,4990,4989,4997,4994,4998
1618,4875,4992,4991,4985,4999,4995,4997,4986
1619,4086,4862,5000,4980,4867,5001,5002,4982
1620,4861,4876,5000,4862,4881,5003,5001,4863
1621,4875,4980,5000,4876,4988,5002,5003,4877
1622,3898,4992,5004,3899,4996,5005,5006,3900
1623,4875,4868,5004,4992,4879,5007,5005,4999
1624,3903,3899,5004,4868,3905,5006,5007,4871
1625,4214,5008,5009,4207,5010,5011,5012,4215
1626,5013,5014,5009,5008,5015,5016,5011,5017
1627,3839,4207,5009,5014,4210,5012,5016,5018
1628,3772,5019,5020,5021,5022,5023,5024,5025
1629,3839,5014,5020,5019,5018,5026,5023,5027
1630,5013,5021,5020,5014,5028,5024,5026,5015
1631,4214,4242,5029,5008,4246,5030,5031,5010
1632,3777,5032,5029,4242,5033,5034,5030,4243
1633,5013,5008,5029,5032,5017,5031,5034,5035
1634,3772,5021,5036,3773,5025,5037,5038,3774
1635,5013,5032,5036,5021,5035,5039,5037,5028
1636,3777,3773,5036,5032,3779,5038,5039,5033
1637,3629,3738,5040,5041,3742,5042,5043,5044
1638,3737,3751,5040,3738,3756,5045,5042,3739
1639,3750,5041,5040,3751,5046,5043,5045,3752
1640,3617,3620,5047,5048,3624,5049,5050,5051
1641,3629,5041,5047,3620,5044,5052,5049,3630
1642,3750,5048,5047,5041,5053,5050,5052,5046
1643,3509,3976,5054,3743,3980,5055,5056,3746
1644,3725,5057,5054,3976,5058,5059,5055,3985
1645,3750,3743,5054,5057,3754,5056,5059,5060
1646,3617,5048,5061,4401,5051,5062,5063,4403
1647,3750,5057,5061,5048,5060,5064,5062,5053
1648,3725,4401,5061,5057,4409,5063,5064,5058
1649,1,3409,5065,2,3412,5066,5067,5
1650,3416,5068,5065,3409,5069,5070,5066,3417
1651,9,2,5065,5068,13,5067,5070,5071
1652,395,5072,5073,663,5074,5075,5076,666
1653,5077,5078,5073,5072,5079,5080,5075,5081
1654,17,663,5073,5078,671,5076,5080,5082
1655,5083,5084,5085,5086,5087,5088,5089,5090
1656,17,5091,5085,5084,5092,5093,5088,5094
1657,5095,5086,5085,5091,5096,5089,5093,5097
1658,5095,5098,5099,5086,5100,5101,5102,5096
1659,5103,5104,5099,5098,5105,5106,5101,5107
1660,5083,5086,5099,5104,5090,5102,5106,5108
1661,3432,5109,5110,5111,5112,5113,5114,5115
1662,5116,5117,5110,5109,5118,5119,5113,5120
1663,5121,5111,5110,5117,5122,5114,5119,5123
1664,5116,5124,5125,5117,5126,5127,5128,5118
1665,5129,5130,5125,5124,5131,5132,5127,5133
1666,5121,5117,5125,5130,5123,5128,5132,5134
1667,5121,5135,5136,5111,5137,5138,5139,5122
1668,5140,5141,5136,5135,5142,5143,5138,5144
1669,3432,5111,5136,5141,5115,5139,5143,5145
1670,127,122,5146,5147,131,5148,5149,5150
1671,17,5084,5146,122,5094,5151,5148,124
1672,5083,5147,5146,5084,5152,5149,5151,5087
1673,5153,5154,5155,5156,5157,5158,5159,5160
1674,5121,5161,5155,5154,5162,5163,5158,5164
1675,5095,5156,5155,5161,5165,5159,5163,5166
1676,3432,3499,5167,5109,3507,5168,5169,5112
1677,3498,5170,5167,3499,5171,5172,5168,3502
1678,5116,5109,5167,5170,5120,5169,5172,5173
1679,3808,5174,5175,3798,5176,5177,5178,3809
1680,5179,5180,5175,5174,5181,5182,5177,5183
1681,3795,3798,5175,5180,3802,5178,5182,5184
1682,5185,5186,5187,5188,5189,5190,5191,5192
1683,5193,5194,5187,5186,5195,5196,5190,5197
1684,5198,5188,5187,5194,5199,5191,5196,5200
1685,272,5201,5202,837,5203,5204,5205,839
1686,5206,5207,5202,5201,5208,5209,5204,5210
1687,194,837,5202,5207,843,5205,5209,5211
1688,5212,5213,5214,5215,5216,5217,5218,5219
1689,5220,5221,5214,5213,5222,5223,5217,5224
1690,3570,5215,5214,5221,5225,5218,5223,5226
1691,4074,5227,5228,4075,5229,5230,5231,4078
1692,5232,5233,5228,5227,5234,5235,5230,5236
1693,3939,4075,5228,5233,4085,5231,5235,5237
1694,3808,4366,5238,5239,4370,5240,5241,5242
1695,3717,5243,5238,4366,5244,5245,5240,4375
1696,5246,5239,5238,5243,5247,5241,5245,5248
1697,3808,5239,5249,5174,5242,5250,5251,5176
1698,5246,5252,5249,5239,5253,5254,5250,5247
1699,5179,5174,5249,5252,5183,5251,5254,5255
1700,5256,5257,5258,5259,5260,5261,5262,5263
1701,5246,5264,5258,5257,5265,5266,5261,5267
1702,5268,5259,5258,5264,5269,5262,5266,5270
1703,3717,5271,5272,5243,5273,5274,5275,5244
1704,5268,5264,5272,5271,5270,5276,5274,5277
1705,5246,5243,5272,5264,5248,5275,5276,5265
1706,5278,5279,5280,5281,5282,5283,5284,5285
1707,5206,5286,5280,5279,5287,5288,5283,5289
1708,284,5281,5280,5286,5290,5284,5288,5291
1709,3557,5292,5293,4170,5294,5295,5296,4172
1710,5220,5297,5293,5292,5298,5299,5295,5300
1711,3651,4170,5293,5297,4176,5296,5299,5301
1712,303,306,5302,5303,310,5304,5305,5306
1713,316,5307,5302,306,5308,5309,5304,317
1714,5310,5303,5302,5307,5311,5305,5309,5312
1715,3664,5313,5314,3665,5315,5316,5317,3668
1716,5318,5319,5314,5313,5320,5321,5316,5322
1717,3672,3665,5314,5319,3676,5317,5321,5323
1718,3702,5324,5325,3703,5326,5327,5328,3706
1719,5329,5330,5325,5324,5331,5332,5327,5333
1720,3710,3703,5325,5330,3714,5328,5332,5334
1721,319,322,5335,5336,326,5337,5338,5339
1722,332,5340,5335,322,5341,5342,5337,333
1723,5329,5336,5335,5340,5343,5338,5342,5344
1724,220,5345,5346,390,5347,5348,5349,392
1725,5350,5351,5346,5345,5352,5353,5348,5354
1726,395,390,5346,5351,399,5349,5353,5355
1727,3717,5356,5357,5271,5358,5359,5360,5273
1728,5361,5362,5357,5356,5363,5364,5359,5365
1729,5268,5271,5357,5362,5277,5360,5364,5366
1730,5153,5367,5368,5369,5370,5371,5372,5373
1731,5374,5375,5368,5367,5376,5377,5371,5378
1732,5361,5369,5368,5375,5379,5372,5377,5380
1733,3717,3720,5381,5356,3724,5382,5383,5358
1734,3419,5384,5381,3720,5385,5386,5382,3730
1735,5361,5356,5381,5384,5365,5383,5386,5387
1736,862,1440,5388,5389,1444,5390,5391,5392
1737,891,5393,5388,1440,5394,5395,5390,1450
1738,5396,5389,5388,5393,5397,5391,5395,5398
1739,5399,5400,5401,5402,5403,5404,5405,5406
1740,5407,5408,5401,5400,5409,5410,5404,5411
1741,4118,5402,5401,5408,5412,5405,5410,5413
1742,146,5414,5415,136,5416,5417,5418,147
1743,5419,5420,5415,5414,5421,5422,5417,5423
1744,133,136,5415,5420,140,5418,5422,5424
1745,5256,5425,5426,5427,5428,5429,5430,5431
1746,5432,5433,5426,5425,5434,5435,5429,5436
1747,5437,5427,5426,5433,5438,5430,5435,5439
1748,5185,5440,5441,5442,5443,5444,5445,5446
1749,5179,5447,5441,5440,5448,5449,5444,5450
1750,5437,5442,5441,5447,5451,5445,5449,5452
1751,522,525,5453,5454,529,5455,5456,5457
1752,535,5458,5453,525,5459,5460,5455,536
1753,5461,5454,5453,5458,5462,5456,5460,5463
1754,519,5464,5465,510,5466,5467,5468,520
1755,5469,5470,5465,5464,5471,5472,5467,5473
1756,332,510,5465,5470,514,5468,5472,5474
1757,3710,5475,5476,3858,5477,5478,5479,3868
1758,5469,5480,5476,5475,5481,5482,5478,5483
1759,3855,3858,5476,5480,3862,5479,5482,5484
1760,3839,5485,5486,3840,5487,5488,5489,3843
1761,5490,5491,5486,5485,5492,5493,5488,5494
1762,3847,3840,5486,5491,3851,5489,5493,5495
1763,146,555,5496,5497,559,5498,5499,5500
1764,564,5501,5496,555,5502,5503,5498,565
1765,5504,5497,5496,5501,5505,5499,5503,5506
1766,5185,5188,5507,5440,5192,5508,5509,5443
1767,5198,5510,5507,5188,5511,5512,5508,5199
1768,5179,5440,5507,5510,5450,5509,5512,5513
1769,3795,5180,5514,5515,5184,5516,5517,5518
1770,5179,5510,5514,5180,5513,5519,5516,5181
1771,5198,5515,5514,5510,5520,5517,5519,5511
1772,3795,5515,5521,3891,5518,5522,5523,3894
1773,5198,5524,5521,5515,5525,5526,5522,5520
1774,3898,3891,5521,5524,3902,5523,5526,5527
1775,194,5528,5529,593,5530,5531,5532,595
1776,5533,5534,5529,5528,5535,5536,5531,5537
1777,210,593,5529,5534,601,5532,5536,5538
1778,3570,3929,5539,5215,3933,5540,5541,5225
1779,3939,5542,5539,3929,5543,5544,5540,3940
1780,5212,5215,5539,5542,5219,5541,5544,5545
1781,5546,5547,5548,5549,5550,5551,5552,5553
1782,5318,5554,5548,5547,5555,5556,5551,5557
1783,5558,5549,5548,5554,5559,5552,5556,5560
1784,5546,5549,5561,5562,5553,5563,5564,5565
1785,5558,5566,5561,5549,5567,5568,5563,5559
1786,5310,5562,5561,5566,5569,5564,5568,5570
1787,5153,5571,5572,5573,5574,5575,5576,5577
1788,5077,5578,5572,5571,5579,5580,5575,5581
1789,5350,5573,5572,5578,5582,5576,5580,5583
1790,395,5351,5584,5072,5355,5585,5586,5074
1791,5350,5578,5584,5351,5583,5587,5585,5352
1792,5077,5072,5584,5578,5081,5586,5587,5579
1793,5153,5156,5588,5571,5160,5589,5590,5574
1794,5095,5591,5588,5156,5592,5593,5589,5165
1795,5077,5571,5588,5591,5581,5590,5593,5594
1796,5095,5091,5595,5591,5097,5596,5597,5592
1797,17,5078,5595,5091,5082,5598,5596,5092
1798,5077,5591,5595,5078,5594,5597,5598,5079
1799,3419,5599,5600,5384,5601,5602,5603,5385
1800,5140,5604,5600,5599,5605,5606,5602,5607
1801,5361,5384,5600,5604,5387,5603,5606,5608
1802,5153,5369,5609,5610,5373,5611,5612,5613
1803,5361,5604,5609,5369,5608,5614,5611,5379
1804,5140,5610,5609,5604,5615,5612,5614,5605
1805,3419,3422,5616,5599,3426,5617,5618,5601
1806,3432,5141,5616,3422,5145,5619,5617,3433
1807,5140,5599,5616,5141,5607,5618,5619,5142
1808,5153,5610,5620,5154,5613,5621,5622,5157
1809,5140,5135,5620,5610,5144,5623,5621,5615
1810,5121,5154,5620,5135,5164,5622,5623,5137
1811,303,5624,5625,720,5626,5627,5628,723
1812,5278,5281,5625,5624,5285,5629,5627,5630
1813,284,720,5625,5281,730,5628,5629,5290
1814,5631,5632,5633,5634,5635,5636,5637,5638
1815,5639,5640,5633,5632,5641,5642,5636,5643
1816,5396,5634,5633,5640,5644,5637,5642,5645
1817,5631,5646,5647,5632,5648,5649,5650,5635
1818,5651,5652,5647,5646,5653,5654,5649,5655
1819,5639,5632,5647,5652,5643,5650,5654,5656
1820,3664,4029,5657,5658,4033,5659,5660,5661
1821,3651,5662,5657,4029,5663,5664,5659,4036
1822,5665,5658,5657,5662,5666,5660,5664,5667
1823,197,200,5668,5669,204,5670,5671,5672
1824,210,5673,5668,200,5674,5675,5670,211
1825,5676,5669,5668,5673,5677,5671,5675,5678
1826,5193,5679,5680,5194,5681,5682,5683,5195
1827,5232,5684,5680,5679,5685,5686,5682,5687
1828,5198,5194,5680,5684,5200,5683,5686,5688
1829,5689,5690,5691,5692,5693,5694,5695,5696
1830,5461,5697,5691,5690,5698,5699,5694,5700
1831,5407,5692,5691,5697,5701,5695,5699,5702
1832,5461,5703,5704,5697,5705,5706,5707,5698
1833,430,5708,5704,5703,5709,5710,5706,5711
1834,5407,5697,5704,5708,5702,5707,5710,5712
1835,5256,5713,5714,5257,5715,5716,5717,5260
1836,5718,5719,5714,5713,5720,5721,5716,5722
1837,5246,5257,5714,5719,5267,5717,5721,5723
1838,5179,5252,5724,5725,5255,5726,5727,5728
1839,5246,5719,5724,5252,5723,5729,5726,5253
1840,5718,5725,5724,5719,5730,5727,5729,5720
1841,5256,5427,5731,5713,5431,5732,5733,5715
1842,5437,5734,5731,5427,5735,5736,5732,5438
1843,5718,5713,5731,5734,5722,5733,5736,5737
1844,5179,5725,5738,5447,5728,5739,5740,5448
1845,5718,5734,5738,5725,5737,5741,5739,5730
1846,5437,5447,5738,5734,5452,5740,5741,5735
1847,862,5742,5743,863,5744,5745,5746,866
1848,5310,5307,5743,5742,5312,5747,5745,5748
1849,316,863,5743,5307,871,5746,5747,5308
1850,272,275,5749,5201,279,5750,5751,5203
1851,284,5286,5749,275,5291,5752,5750,285
1852,5206,5201,5749,5286,5210,5751,5752,5287
1853,5533,5528,5753,5754,5537,5755,5756,5757
1854,194,5207,5753,5528,5211,5758,5755,5530
1855,5206,5754,5753,5207,5759,5756,5758,5208
1856,5665,5662,5760,5761,5667,5762,5763,5764
1857,3651,5297,5760,5662,5301,5765,5762,5663
1858,5220,5761,5760,5297,5766,5763,5765,5298
1859,3557,3560,5767,5292,3564,5768,5769,5294
1860,3570,5221,5767,3560,5226,5770,5768,3571
1861,5220,5292,5767,5221,5300,5769,5770,5222
1862,3710,5330,5771,5475,5334,5772,5773,5477
1863,5329,5774,5771,5330,5775,5776,5772,5331
1864,5469,5475,5771,5774,5483,5773,5776,5777
1865,332,5470,5778,5340,5474,5779,5780,5341
1866,5469,5774,5778,5470,5777,5781,5779,5471
1867,5329,5340,5778,5774,5344,5780,5781,5775
1868,3764,4155,5782,5783,4159,5784,5785,5786
1869,3672,5319,5782,4155,5323,5787,5784,4162
1870,5318,5783,5782,5319,5788,5785,5787,5320
1871,522,5454,5789,5790,5457,5791,5792,5793
1872,5461,5794,5789,5454,5795,5796,5791,5462
1873,5797,5790,5789,5794,5798,5792,5796,5799
1874,3839,5019,5800,5801,5027,5802,5803,5804
1875,3772,5805,5800,5019,5806,5807,5802,5022
1876,5651,5801,5800,5805,5808,5803,5807,5809
1877,5185,5442,5810,5811,5446,5812,5813,5814
1878,5437,5815,5810,5442,5816,5817,5812,5451
1879,5504,5811,5810,5815,5818,5813,5817,5819
1880,5631,5634,5820,5821,5638,5822,5823,5824
1881,5396,5825,5820,5634,5826,5827,5822,5644
1882,5797,5821,5820,5825,5828,5823,5827,5829
1883,5546,5830,5831,5832,5833,5834,5835,5836
1884,5837,5838,5831,5830,5839,5840,5834,5841
1885,5639,5832,5831,5838,5842,5835,5840,5843
1886,5396,5640,5844,5845,5645,5846,5847,5848
1887,5639,5838,5844,5640,5843,5849,5846,5641
1888,5837,5845,5844,5838,5850,5847,5849,5839
1889,5546,5562,5851,5830,5565,5852,5853,5833
1890,5310,5854,5851,5562,5855,5856,5852,5569
1891,5837,5830,5851,5854,5841,5853,5856,5857
1892,5858,5859,5860,5861,5862,5863,5864,5865
1893,5866,5867,5860,5859,5868,5869,5863,5870
1894,5665,5861,5860,5867,5871,5864,5869,5872
1895,5858,5873,5874,5859,5875,5876,5877,5862
1896,5878,5879,5874,5873,5880,5881,5876,5882
1897,5866,5859,5874,5879,5870,5877,5881,5883
1898,5318,5884,5885,5554,5886,5887,5888,5555
1899,5866,5889,5885,5884,5890,5891,5887,5892
1900,5558,5554,5885,5889,5560,5888,5891,5893
1901,430,5703,5894,996,5711,5895,5896,998
1902,5461,5458,5894,5703,5463,5897,5895,5705
1903,535,996,5894,5458,1004,5896,5897,5459
1904,5689,5692,5898,5899,5696,5900,5901,5902
1905,5407,5400,5898,5692,5411,5903,5900,5701
1906,5399,5899,5898,5400,5904,5901,5903,5403
1907,4118,4312,5905,5402,4315,5906,5907,5412
1908,3847,5908,5905,4312,5909,5910,5906,4317
1909,5399,5402,5905,5908,5406,5907,5910,5911
1910,5129,5912,5913,5130,5914,5915,5916,5131
1911,5103,5917,5913,5912,5918,5919,5915,5920
1912,5121,5130,5913,5917,5134,5916,5919,5921
1913,5095,5161,5922,5098,5166,5923,5924,5100
1914,5121,5917,5922,5161,5921,5925,5923,5162
1915,5103,5098,5922,5917,5107,5924,5925,5918
1916,5129,5926,5927,5912,5928,5929,5930,5914
1917,5931,5932,5927,5926,5933,5934,5929,5935
1918,5103,5912,5927,5932,5920,5930,5934,5936
1919,5931,5937,5938,5932,5939,5940,5941,5933
1920,5083,5104,5938,5937,5108,5942,5940,5943
1921,5103,5932,5938,5104,5936,5941,5942,5105
1922,133,5944,5945,213,5946,5947,5948,216
1923,5432,5949,5945,5944,5950,5951,5947,5952
1924,220,213,5945,5949,224,5948,5951,5953
1925,5558,5889,5954,5955,5893,5956,5957,5958
1926,5866,5879,5954,5889,5883,5959,5956,5890
1927,5878,5955,5954,5879,5960,5957,5959,5880
1928,5310,5566,5961,5962,5570,5963,5964,5965
1929,5558,5955,5961,5566,5958,5966,5963,5567
1930,5878,5962,5961,5955,5967,5964,5966,5960
1931,5858,5968,5969,5873,5970,5971,5972,5875
1932,5278,5973,5969,5968,5974,5975,5971,5976
1933,5878,5873,5969,5973,5882,5972,5975,5977
1934,5256,5978,5979,5425,5980,5981,5982,5428
1935,5350,5983,5979,5978,5984,5985,5981,5986
1936,5432,5425,5979,5983,5436,5982,5985,5987
1937,220,5949,5988,5345,5953,5989,5990,5347
1938,5432,5983,5988,5949,5987,5991,5989,5950
1939,5350,5345,5988,5983,5354,5990,5991,5984
1940,3855,5992,5993,4434,5994,5995,5996,4441
1941,5997,5998,5993,5992,5999,6000,5995,6001
1942,3416,4434,5993,5998,4437,5996,6000,6002
1943,9,5068,6003,6004,5071,6005,6006,6007
1944,3416,5998,6003,5068,6002,6008,6005,5069
1945,5997,6004,6003,5998,6009,6006,6008,5999
1946,9,6004,6010,1089,6007,6011,6012,1092
1947,5997,6013,6010,6004,6014,6015,6011,6009
1948,519,1089,6010,6013,1099,6012,6015,6016
1949,5318,6017,6018,5783,6019,6020,6021,5788
1950,6022,6023,6018,6017,6024,6025,6020,6026
1951,3764,5783,6018,6023,5786,6021,6025,6027
1952,5651,6028,6029,5652,6030,6031,6032,5653
1953,6022,6033,6029,6028,6034,6035,6031,6036
1954,5639,5652,6029,6033,5656,6032,6035,6037
1955,5665,5867,6038,5658,5872,6039,6040,5666
1956,5866,6041,6038,5867,6042,6043,6039,5868
1957,3664,5658,6038,6041,5661,6040,6043,6044
1958,5318,5313,6045,5884,5322,6046,6047,5886
1959,3664,6041,6045,5313,6044,6048,6046,5315
1960,5866,5884,6045,6041,5892,6047,6048,6042
1961,5504,6049,6050,5497,6051,6052,6053,5505
1962,5419,5414,6050,6049,5423,6054,6052,6055
1963,146,5497,6050,5414,5500,6053,6054,5416
1964,5432,5944,6056,6057,5952,6058,6059,6060
1965,133,5420,6056,5944,5424,6061,6058,5946
1966,5419,6057,6056,5420,6062,6059,6061,5421
1967,5504,5815,6063,6049,5819,6064,6065,6051
1968,5437,6066,6063,5815,6067,6068,6064,5816
1969,5419,6049,6063,6066,6055,6065,6068,6069
1970,5432,6057,6070,5433,6060,6071,6072,5434
1971,5419,6066,6070,6057,6069,6073,6071,6062
1972,5437,5433,6070,6066,5439,6072,6073,6067
1973,5399,5908,6074,6075,5911,6076,6077,6078
1974,3847,5491,6074,5908,5495,6079,6076,5909
1975,5490,6075,6074,5491,6080,6077,6079,5492
1976,5651,6081,6082,5801,6083,6084,6085,5808
1977,5490,5485,6082,6081,5494,6086,6084,6087
1978,3839,5801,6082,5485,5804,6085,6086,5487
1979,5310,5962,6088,5303,5965,6089,6090,5311
1980,5878,6091,6088,5962,6092,6093,6089,5967
1981,303,5303,6088,6091,5306,6090,6093,6094
1982,5278,5624,6095,5973,5630,6096,6097,5974
1983,303,6091,6095,5624,6094,6098,6096,5626
1984,5878,5973,6095,6091,5977,6097,6098,6092
1985,5797,6099,6100,6101,6102,6103,6104,6105
1986,6106,6107,6100,6099,6108,6109,6103,6110
1987,5490,6101,6100,6107,6111,6104,6109,6112
1988,5399,6075,6113,6114,6078,6115,6116,6117
1989,5490,6107,6113,6075,6112,6118,6115,6080
1990,6106,6114,6113,6107,6119,6116,6118,6108
1991,5399,6114,6120,5899,6117,6121,6122,5904
1992,6106,6123,6120,6114,6124,6125,6121,6119
1993,5689,5899,6120,6123,5902,6122,6125,6126
1994,6127,6128,6129,6130,6131,6132,6133,6134
1995,6135,6136,6129,6128,6137,6138,6132,6139
1996,5676,6130,6129,6136,6140,6133,6138,6141
1997,6142,6143,6144,6145,6146,6147,6148,6149
1998,6127,6150,6144,6143,6151,6152,6147,6153
1999,5533,6145,6144,6150,6154,6148,6152,6155
2000,5232,5679,6156,6157,5687,6158,6159,6160
2001,5193,6161,6156,5679,6162,6163,6158,5681
2002,6164,6157,6156,6161,6165,6159,6163,6166
2003,6142,6167,6168,6169,6170,6171,6172,6173
2004,5212,6174,6168,6167,6175,6176,6171,6177
2005,6164,6169,6168,6174,6178,6172,6176,6179
2006,5533,6150,6180,5534,6155,6181,6182,5535
2007,6127,6183,6180,6150,6184,6185,6181,6151
2008,210,5534,6180,6183,5538,6182,6185,6186
2009,5676,5673,6187,6130,5678,6188,6189,6140
2010,210,6183,6187,5673,6186,6190,6188,5674
2011,6127,6130,6187,6183,6134,6189,6190,6184
2012,5212,5542,6191,6174,5545,6192,6193,6175
2013,3939,6194,6191,5542,6195,6196,6192,5543
2014,6164,6174,6191,6194,6179,6193,6196,6197
2015,5232,6157,6198,5233,6160,6199,6200,5234
2016,6164,6194,6198,6157,6197,6201,6199,6165
2017,3939,5233,6198,6194,5237,6200,6201,6195
2018,5396,5845,6202,5389,5848,6203,6204,5397
2019,5837,6205,6202,5845,6206,6207,6203,5850
2020,862,5389,6202,6205,5392,6204,6207,6208
2021,5310,5742,6209,5854,5748,6210,6211,5855
2022,862,6205,6209,5742,6208,6212,6210,5744
2023,5837,5854,6209,6205,5857,6211,6212,6206
2024,6213,6214,6215,6216,6217,6218,6219,6220
2025,6221,6222,6215,6214,6223,6224,6218,6225
2026,5206,6216,6215,6222,6226,6219,6224,6227
2027,5533,5754,6228,6229,5757,6230,6231,6232
2028,5206,6222,6228,5754,6227,6233,6230,5759
2029,6221,6229,6228,6222,6234,6231,6233,6223
2030,5533,6229,6235,6145,6232,6236,6237,6154
2031,6221,6238,6235,6229,6239,6240,6236,6234
2032,6142,6145,6235,6238,6149,6237,6240,6241
2033,5212,6242,6243,5213,6244,6245,6246,5216
2034,6221,6247,6243,6242,6248,6249,6245,6250
2035,5220,5213,6243,6247,5224,6246,6249,6251
2036,6213,6252,6253,6214,6254,6255,6256,6217
2037,5220,6247,6253,6252,6251,6257,6255,6258
2038,6221,6214,6253,6247,6225,6256,6257,6248
2039,5212,6167,6259,6242,6177,6260,6261,6244
2040,6142,6238,6259,6167,6241,6262,6260,6170
2041,6221,6242,6259,6238,6250,6261,6262,6239
2042,6213,6263,6264,6252,6265,6266,6267,6254
2043,6268,6269,6264,6263,6270,6271,6266,6272
2044,5220,6252,6264,6269,6258,6267,6271,6273
2045,5665,5761,6274,6275,5764,6276,6277,6278
2046,5220,6269,6274,5761,6273,6279,6276,5766
2047,6268,6275,6274,6269,6280,6277,6279,6270
2048,6213,6281,6282,6263,6283,6284,6285,6265
2049,6286,6287,6282,6281,6288,6289,6284,6290
2050,6268,6263,6282,6287,6272,6285,6289,6291
2051,5665,6275,6292,5861,6278,6293,6294,5871
2052,6268,6295,6292,6275,6296,6297,6293,6280
2053,5858,5861,6292,6295,5865,6294,6297,6298
2054,5858,6295,6299,6300,6298,6301,6302,6303
2055,6268,6287,6299,6295,6291,6304,6301,6296
2056,6286,6300,6299,6287,6305,6302,6304,6288
2057,5278,5968,6306,6307,5976,6308,6309,6310
2058,5858,6300,6306,5968,6303,6311,6308,5970
2059,6286,6307,6306,6300,6312,6309,6311,6305
2060,6213,6216,6313,6281,6220,6314,6315,6283
2061,5206,6316,6313,6216,6317,6318,6314,6226
2062,6286,6281,6313,6316,6290,6315,6318,6319
2063,5278,6307,6320,5279,6310,6321,6322,5282
2064,6286,6316,6320,6307,6319,6323,6321,6312
2065,5206,5279,6320,6316,5289,6322,6323,6317
2066,5318,5547,6324,6017,5557,6325,6326,6019
2067,5546,6327,6324,5547,6328,6329,6325,5550
2068,6022,6017,6324,6327,6026,6326,6329,6330
2069,5639,6033,6331,5832,6037,6332,6333,5842
2070,6022,6327,6331,6033,6330,6334,6332,6034
2071,5546,5832,6331,6327,5836,6333,6334,6328
2072,5651,6335,6336,6028,6337,6338,6339,6030
2073,6340,6341,6336,6335,6342,6343,6338,6344
2074,6022,6028,6336,6341,6036,6339,6343,6345
2075,3764,6023,6346,6347,6027,6348,6349,6350
2076,6022,6341,6346,6023,6345,6351,6348,6024
2077,6340,6347,6346,6341,6352,6349,6351,6342
2078,5651,5805,6353,6335,5809,6354,6355,6337
2079,3772,6356,6353,5805,6357,6358,6354,5806
2080,6340,6335,6353,6356,6344,6355,6358,6359
2081,3764,6347,6360,3765,6350,6361,6362,3768
2082,6340,6356,6360,6347,6359,6363,6361,6352
2083,3772,3765,6360,6356,3776,6362,6363,6357
2084,5407,6364,6365,6366,6367,6368,6369,6370
2085,6371,6372,6365,6364,6373,6374,6368,6375
2086,5329,6366,6365,6372,6376,6369,6374,6377
2087,319,5336,6378,6379,5339,6380,6381,6382
2088,5329,6372,6378,5336,6377,6383,6380,5343
2089,6371,6379,6378,6372,6384,6381,6383,6373
2090,5407,5708,6385,6364,5712,6386,6387,6367
2091,430,6388,6385,5708,6389,6390,6386,5709
2092,6371,6364,6385,6388,6375,6387,6390,6391
2093,319,6379,6392,1523,6382,6393,6394,1525
2094,6371,6388,6392,6379,6391,6395,6393,6384
2095,430,1523,6392,6388,1531,6394,6395,6389
2096,3702,6396,6397,5324,6398,6399,6400,5326
2097,6401,6402,6397,6396,6403,6404,6399,6405
2098,5329,5324,6397,6402,5333,6400,6404,6406
2099,5407,6366,6407,6408,6370,6409,6410,6411
2100,5329,6402,6407,6366,6406,6412,6409,6376
2101,6401,6408,6407,6402,6413,6410,6412,6403
2102,3702,4819,6414,6396,4822,6415,6416,6398
2103,4118,6417,6414,4819,6418,6419,6415,4824
2104,6401,6396,6414,6417,6405,6416,6419,6420
2105,5407,6408,6421,5408,6411,6422,6423,5409
2106,6401,6417,6421,6408,6420,6424,6422,6413
2107,4118,5408,6421,6417,5413,6423,6424,6418
2108,5193,6425,6426,6427,6428,6429,6430,6431
2109,6432,6433,6426,6425,6434,6435,6429,6436
2110,5676,6427,6426,6433,6437,6430,6435,6438
2111,5504,6439,6440,6441,6442,6443,6444,6445
2112,6446,6447,6440,6439,6448,6449,6443,6450
2113,6432,6441,6440,6447,6451,6444,6449,6452
2114,5193,5186,6453,6425,5197,6454,6455,6428
2115,5185,6456,6453,5186,6457,6458,6454,5189
2116,6432,6425,6453,6456,6436,6455,6458,6459
2117,5504,6441,6460,5811,6445,6461,6462,5818
2118,6432,6456,6460,6441,6459,6463,6461,6451
2119,5185,5811,6460,6456,5814,6462,6463,6457
2120,5193,6464,6465,6161,6466,6467,6468,6162
2121,6135,6469,6465,6464,6470,6471,6467,6472
2122,6164,6161,6465,6469,6166,6468,6471,6473
2123,6142,6169,6474,6475,6173,6476,6477,6478
2124,6164,6469,6474,6169,6473,6479,6476,6178
2125,6135,6475,6474,6469,6480,6477,6479,6470
2126,5193,6427,6481,6464,6431,6482,6483,6466
2127,5676,6136,6481,6427,6141,6484,6482,6437
2128,6135,6464,6481,6136,6472,6483,6484,6137
2129,6142,6475,6485,6143,6478,6486,6487,6146
2130,6135,6128,6485,6475,6139,6488,6486,6480
2131,6127,6143,6485,6128,6153,6487,6488,6131
2132,3855,5480,6489,5992,5484,6490,6491,5994
2133,5469,6492,6489,5480,6493,6494,6490,5481
2134,5997,5992,6489,6492,6001,6491,6494,6495
2135,519,6013,6496,5464,6016,6497,6498,5466
2136,5997,6492,6496,6013,6495,6499,6497,6014
2137,5469,5464,6496,6492,5473,6498,6499,6493
2138,5797,5794,6500,6099,5799,6501,6502,6102
2139,5461,6503,6500,5794,6504,6505,6501,5795
2140,6106,6099,6500,6503,6110,6502,6505,6506
2141,5689,6123,6507,5690,6126,6508,6509,5693
2142,6106,6503,6507,6123,6506,6510,6508,6124
2143,5461,5690,6507,6503,5700,6509,6510,6504
2144,5651,5646,6511,6081,5655,6512,6513,6083
2145,5631,6514,6511,5646,6515,6516,6512,5648
2146,5490,6081,6511,6514,6087,6513,6516,6517
2147,5797,6101,6518,5821,6105,6519,6520,5828
2148,5490,6514,6518,6101,6517,6521,6519,6111
2149,5631,5821,6518,6514,5824,6520,6521,6515
2150,5232,6522,6523,5684,6524,6525,6526,5685
2151,6527,6528,6523,6522,6529,6530,6525,6531
2152,5198,5684,6523,6528,5688,6526,6530,6532
2153,3898,5524,6533,6534,5527,6535,6536,6537
2154,5198,6528,6533,5524,6532,6538,6535,5525
2155,6527,6534,6533,6528,6539,6536,6538,6529
2156,5232,5227,6540,6522,5236,6541,6542,6524
2157,4074,6543,6540,5227,6544,6545,6541,5229
2158,6527,6522,6540,6543,6531,6542,6545,6546
2159,3898,6534,6547,4990,6537,6548,6549,4993
2160,6527,6543,6547,6534,6546,6550,6548,6539
2161,4074,4990,6547,6543,4998,6549,6550,6544
2162,5676,6551,6552,5669,6553,6554,6555,5677
2163,6446,6556,6552,6551,6557,6558,6554,6559
2164,197,5669,6552,6556,5672,6555,6558,6560
2165,564,1660,6561,6562,1663,6563,6564,6565
2166,197,6556,6561,1660,6560,6566,6563,1665
2167,6446,6562,6561,6556,6567,6564,6566,6557
2168,5676,6433,6568,6551,6438,6569,6570,6553
2169,6432,6447,6568,6433,6452,6571,6569,6434
2170,6446,6551,6568,6447,6559,6570,6571,6448
2171,564,6562,6572,5501,6565,6573,6574,5502
2172,6446,6439,6572,6562,6450,6575,6573,6567
2173,5504,5501,6572,6439,5506,6574,6575,6442
2174,5797,6576,6577,5790,6578,6579,6580,5798
2175,6581,6582,6577,6576,6583,6584,6579,6585
2176,522,5790,6577,6582,5793,6580,6584,6586
2177,891,884,6587,6588,895,6589,6590,6591
2178,522,6582,6587,884,6586,6592,6589,887
2179,6581,6588,6587,6582,6593,6590,6592,6583
2180,5797,5825,6594,6576,5829,6595,6596,6578
2181,5396,6597,6594,5825,6598,6599,6595,5826
2182,6581,6576,6594,6597,6585,6596,6599,6600
2183,891,6588,6601,5393,6591,6602,6603,5394
2184,6581,6597,6601,6588,6600,6604,6602,6593
2185,5396,5393,6601,6597,5398,6603,6604,6598
2186,5268,5362,6605,6606,5366,6607,6608,6609
2187,5361,5375,6605,5362,5380,6610,6607,5363
2188,5374,6606,6605,5375,6611,6608,6610,5376
2189,5256,5259,6612,6613,5263,6614,6615,6616
2190,5268,6606,6612,5259,6609,6617,6614,5269
2191,5374,6613,6612,6606,6618,6615,6617,6611
2192,5153,5573,6619,5367,5577,6620,6621,5370
2193,5350,6622,6619,5573,6623,6624,6620,5582
2194,5374,5367,6619,6622,5378,6621,6624,6625
2195,5256,6613,6626,5978,6616,6627,6628,5980
2196,5374,6622,6626,6613,6625,6629,6627,6618
2197,5350,5978,6626,6622,5986,6628,6629,6623
2198,25,128,6630,6631,132,6632,6633,6634
2199,127,6635,6630,128,6636,6637,6632,129
2200,6638,6631,6630,6635,6639,6633,6637,6640
2201,6641,6642,6643,6644,6645,6646,6647,6648
2202,6649,6650,6643,6642,6651,6652,6646,6653
2203,25,6644,6643,6650,6654,6647,6652,6655
2204,6638,6656,6657,6631,6658,6659,6660,6639
2205,6641,6644,6657,6656,6648,6661,6659,6662
2206,25,6631,6657,6644,6634,6660,6661,6654
2207,6663,6664,6665,6666,6667,6668,6669,6670
2208,6671,6672,6665,6664,6673,6674,6668,6675
2209,6676,6666,6665,6672,6677,6669,6674,6678
2210,6679,6680,6681,6682,6683,6684,6685,6686
2211,6671,6687,6681,6680,6688,6689,6684,6690
2212,6691,6682,6681,6687,6692,6685,6689,6693
2213,6694,6695,6696,6697,6698,6699,6700,6701
2214,6702,6703,6696,6695,6704,6705,6699,6706
2215,6707,6697,6696,6703,6708,6700,6705,6709
2216,49,1031,6710,6711,1037,6712,6713,6714
2217,1025,6715,6710,1031,6716,6717,6712,1033
2218,6718,6711,6710,6715,6719,6713,6717,6720
2219,6721,6722,6723,6724,6725,6726,6727,6728
2220,6729,6730,6723,6722,6731,6732,6726,6733
2221,6734,6724,6723,6730,6735,6727,6732,6736
2222,97,100,6737,6738,104,6739,6740,6741
2223,49,6742,6737,100,6743,6744,6739,107
2224,6745,6738,6737,6742,6746,6740,6744,6747
2225,6748,6749,6750,6751,6752,6753,6754,6755
2226,6756,6757,6750,6749,6758,6759,6753,6760
2227,6761,6751,6750,6757,6762,6754,6759,6763
2228,6764,6765,6766,6767,6768,6769,6770,6771
2229,6721,6772,6766,6765,6773,6774,6769,6775
2230,6776,6767,6766,6772,6777,6770,6774,6778
2231,6729,6722,6779,6780,6733,6781,6782,6783
2232,6721,6784,6779,6722,6785,6786,6781,6725
2233,6787,6780,6779,6784,6788,6782,6786,6789
2234,6691,6790,6791,6682,6792,6793,6794,6692
2235,6795,6796,6791,6790,6797,6798,6793,6799
2236,6679,6682,6791,6796,6686,6794,6798,6800
2237,6801,6802,6803,6804,6805,6806,6807,6808
2238,6809,6810,6803,6802,6811,6812,6806,6813
2239,6729,6804,6803,6810,6814,6807,6812,6815
2240,6816,6817,6818,6819,6820,6821,6822,6823
2241,6824,6825,6818,6817,6826,6827,6821,6828
2242,6829,6819,6818,6825,6830,6822,6827,6831
2243,6832,6833,6834,6835,6836,6837,6838,6839
2244,6840,6841,6834,6833,6842,6843,6837,6844
2245,6845,6835,6834,6841,6846,6838,6843,6847
2246,6848,6849,6850,6851,6852,6853,6854,6855
2247,6856,6857,6850,6849,6858,6859,6853,6860
2248,6832,6851,6850,6857,6861,6854,6859,6862
2249,6745,6742,6863,6864,6747,6865,6866,6867
2250,49,6711,6863,6742,6714,6868,6865,6743
2251,6718,6864,6863,6711,6869,6866,6868,6719
2252,6676,6672,6870,6871,6678,6872,6873,6874
2253,6671,6680,6870,6672,6690,6875,6872,6673
2254,6679,6871,6870,6680,6876,6873,6875,6683
2255,6829,6877,6878,6879,6880,6881,6882,6883
2256,6884,6885,6878,6877,6886,6887,6881,6888
2257,6889,6879,6878,6885,6890,6882,6887,6891
2258,6892,6893,6894,6895,6896,6897,6898,6899
2259,6845,6841,6894,6893,6847,6900,6897,6901
2260,6840,6895,6894,6841,6902,6898,6900,6842
2261,6840,6833,6903,6904,6844,6905,6906,6907
2262,6832,6857,6903,6833,6862,6908,6905,6836
2263,6856,6904,6903,6857,6909,6906,6908,6858
2264,6910,6911,6912,6913,6914,6915,6916,6917
2265,6856,6849,6912,6911,6860,6918,6915,6919
2266,6848,6913,6912,6849,6920,6916,6918,6852
2267,6676,6871,6921,6922,6874,6923,6924,6925
2268,6679,6926,6921,6871,6927,6928,6923,6876
2269,6929,6922,6921,6926,6930,6924,6928,6931
2270,6932,6933,6934,6935,6936,6937,6938,6939
2271,6940,6941,6934,6933,6942,6943,6937,6944
2272,6945,6935,6934,6941,6946,6938,6943,6947
2273,6948,6949,6950,6951,6952,6953,6954,6955
2274,6940,6956,6950,6949,6957,6958,6953,6959
2275,6960,6951,6950,6956,6961,6954,6958,6962
2276,6963,6964,6965,6966,6967,6968,6969,6970
2277,6971,6972,6965,6964,6973,6974,6968,6975
2278,6976,6966,6965,6972,6977,6969,6974,6978
2279,6979,6980,6981,6982,6983,6984,6985,6986
2280,6987,6988,6981,6980,6989,6990,6984,6991
2281,6992,6982,6981,6988,6993,6985,6990,6994
2282,6995,6996,6997,6998,6999,7000,7001,7002
2283,7003,7004,6997,6996,7005,7006,7000,7007
2284,7008,6998,6997,7004,7009,7001,7006,7010
2285,6829,6825,7011,7012,6831,7013,7014,7015
2286,6824,7016,7011,6825,7017,7018,7013,6826
2287,7019,7012,7011,7016,7020,7014,7018,7021
2288,7022,7023,7024,7025,7026,7027,7028,7029
2289,7019,7016,7024,7023,7021,7030,7027,7031
2290,6824,7025,7024,7016,7032,7028,7030,7017
2291,6829,7012,7033,6877,7015,7034,7035,6880
2292,7019,7036,7033,7012,7037,7038,7034,7020
2293,6884,6877,7033,7036,6888,7035,7038,7039
2294,7040,7041,7042,7043,7044,7045,7046,7047
2295,7048,7049,7042,7041,7050,7051,7045,7052
2296,6976,7043,7042,7049,7053,7046,7051,7054
2297,7040,7055,7056,7041,7057,7058,7059,7044
2298,7060,7061,7056,7055,7062,7063,7058,7064
2299,7048,7041,7056,7061,7052,7059,7063,7065
2300,6756,6749,7066,7067,6760,7068,7069,7070
2301,6748,7071,7066,6749,7072,7073,7068,6752
2302,7074,7067,7066,7071,7075,7069,7073,7076
2303,6679,6796,7077,7078,6800,7079,7080,7081
2304,6795,7082,7077,6796,7083,7084,7079,6797
2305,7074,7078,7077,7082,7085,7080,7084,7086
2306,6795,7087,7088,7082,7089,7090,7091,7083
2307,7092,7093,7088,7087,7094,7095,7090,7096
2308,7074,7082,7088,7093,7086,7091,7095,7097
2309,6691,7098,7099,6790,7100,7101,7102,6792
2310,7103,7104,7099,7098,7105,7106,7101,7107
2311,6795,6790,7099,7104,6799,7102,7106,7108
2312,6707,7109,7110,7111,7112,7113,7114,7115
2313,7116,7117,7110,7109,7118,7119,7113,7120
2314,7121,7111,7110,7117,7122,7114,7119,7123
2315,6795,7124,7125,7126,7127,7128,7129,7130
2316,7116,7131,7125,7124,7132,7133,7128,7134
2317,6702,7126,7125,7131,7135,7129,7133,7136
2318,6707,6703,7137,7109,6709,7138,7139,7112
2319,6702,7131,7137,6703,7136,7140,7138,6704
2320,7116,7109,7137,7131,7120,7139,7140,7132
2321,6702,7141,7142,7143,7144,7145,7146,7147
2322,6718,7148,7142,7141,7149,7150,7145,7151
2323,7152,7143,7142,7148,7153,7146,7150,7154
2324,6641,7155,7156,7157,7158,7159,7160,7161
2325,6756,7162,7156,7155,7163,7164,7159,7165
2326,7152,7157,7156,7162,7166,7160,7164,7167
2327,7168,7169,7170,7171,7172,7173,7174,7175
2328,7176,7177,7170,7169,7178,7179,7173,7180
2329,7181,7171,7170,7177,7182,7174,7179,7183
2330,7184,7185,7186,7187,7188,7189,7190,7191
2331,7176,7192,7186,7185,7193,7194,7189,7195
2332,7196,7187,7186,7192,7197,7190,7194,7198
2333,7199,7200,7201,7202,7203,7204,7205,7206
2334,7207,7208,7201,7200,7209,7210,7204,7211
2335,7212,7202,7201,7208,7213,7205,7210,7214
2336,6671,7215,7216,7217,7218,7219,7220,7221
2337,7222,7223,7216,7215,7224,7225,7219,7226
2338,6734,7217,7216,7223,7227,7220,7225,7228
2339,6721,6724,7229,7230,6728,7231,7232,7233
2340,6734,7223,7229,6724,7228,7234,7231,6735
2341,7222,7230,7229,7223,7235,7232,7234,7224
2342,6671,6664,7236,7215,6675,7237,7238,7218
2343,6663,7239,7236,6664,7240,7241,7237,6667
2344,7222,7215,7236,7239,7226,7238,7241,7242
2345,7212,7243,7244,7245,7246,7247,7248,7249
2346,7250,7251,7244,7243,7252,7253,7247,7254
2347,7255,7245,7244,7251,7256,7248,7253,7257
2348,7199,7202,7258,7259,7206,7260,7261,7262
2349,7212,7245,7258,7202,7249,7263,7260,7213
2350,7255,7259,7258,7245,7264,7261,7263,7256
2351,6734,6730,7265,7266,6736,7267,7268,7269
2352,6729,7270,7265,6730,7271,7272,7267,6731
2353,7255,7266,7265,7270,7273,7268,7272,7274
2354,6816,7275,7276,7277,7278,7279,7280,7281
2355,7282,7283,7276,7275,7284,7285,7279,7286
2356,7287,7277,7276,7283,7288,7280,7285,7289
2357,7290,7291,7292,7293,7294,7295,7296,7297
2358,7287,7283,7292,7291,7289,7298,7295,7299
2359,7282,7293,7292,7283,7300,7296,7298,7284
2360,6816,6819,7301,7275,6823,7302,7303,7278
2361,6829,7304,7301,6819,7305,7306,7302,6830
2362,7282,7275,7301,7304,7286,7303,7306,7307
2363,7290,7308,7309,7310,7311,7312,7313,7314
2364,7315,7316,7309,7308,7317,7318,7312,7319
2365,7320,7310,7309,7316,7321,7313,7318,7322
2366,6889,7323,7324,7325,7326,7327,7328,7329
2367,7320,7316,7324,7323,7322,7330,7327,7331
2368,7315,7325,7324,7316,7332,7328,7330,7317
2369,6889,7325,7333,6879,7329,7334,7335,6890
2370,7315,7336,7333,7325,7337,7338,7334,7332
2371,6829,6879,7333,7336,6883,7335,7338,7339
2372,6729,6810,7340,7270,6815,7341,7342,7271
2373,6809,7343,7340,6810,7344,7345,7341,6811
2374,7255,7270,7340,7343,7274,7342,7345,7346
2375,7199,7259,7347,7348,7262,7349,7350,7351
2376,7255,7343,7347,7259,7346,7352,7349,7264
2377,6809,7348,7347,7343,7353,7350,7352,7344
2378,6721,7230,7354,6772,7233,7355,7356,6773
2379,7222,7357,7354,7230,7358,7359,7355,7235
2380,6776,6772,7354,7357,6778,7356,7359,7360
2381,6663,7361,7362,7239,7363,7364,7365,7240
2382,6776,7357,7362,7361,7360,7366,7364,7367
2383,7222,7239,7362,7357,7242,7365,7366,7358
2384,6679,7368,7369,6926,7370,7371,7372,6927
2385,7373,7374,7369,7368,7375,7376,7371,7377
2386,6929,6926,7369,7374,6931,7372,7376,7378
2387,6748,7379,7380,7381,7382,7383,7384,7385
2388,6929,7374,7380,7379,7378,7386,7383,7387
2389,7373,7381,7380,7374,7388,7384,7386,7375
2390,6679,7078,7389,7368,7081,7390,7391,7370
2391,7074,7392,7389,7078,7393,7394,7390,7085
2392,7373,7368,7389,7392,7377,7391,7394,7395
2393,6748,7381,7396,7071,7385,7397,7398,7072
2394,7373,7392,7396,7381,7395,7399,7397,7388
2395,7074,7071,7396,7392,7076,7398,7399,7393
2396,6963,6966,7400,7401,6970,7402,7403,7404
2397,6976,7405,7400,6966,7406,7407,7402,6977
2398,7408,7401,7400,7405,7409,7403,7407,7410
2399,7121,7411,7412,7413,7414,7415,7416,7417
2400,7103,7418,7412,7411,7419,7420,7415,7421
2401,7207,7413,7412,7418,7422,7416,7420,7423
2402,6764,7424,7425,6765,7426,7427,7428,6768
2403,7408,7429,7425,7424,7430,7431,7427,7432
2404,6721,6765,7425,7429,6775,7428,7431,7433
2405,6787,6784,7434,7435,6789,7436,7437,7438
2406,6721,7429,7434,6784,7433,7439,7436,6785
2407,7408,7435,7434,7429,7440,7437,7439,7430
2408,6764,7441,7442,7424,7443,7444,7445,7426
2409,6963,7401,7442,7441,7404,7446,7444,7447
2410,7408,7424,7442,7401,7432,7445,7446,7409
2411,7448,7449,7450,7451,7452,7453,7454,7455
2412,7060,7456,7450,7449,7457,7458,7453,7459
2413,6979,7451,7450,7456,7460,7454,7458,7461
2414,6995,6998,7462,7463,7002,7464,7465,7466
2415,7008,7467,7462,6998,7468,7469,7464,7009
2416,7470,7463,7462,7467,7471,7465,7469,7472
2417,6845,7473,7474,7475,7476,7477,7478,7479
2418,7480,7481,7474,7473,7482,7483,7477,7484
2419,7485,7475,7474,7481,7486,7478,7483,7487
2420,7488,7489,7490,7491,7492,7493,7494,7495
2421,7485,7481,7490,7489,7487,7496,7493,7497
2422,7480,7491,7490,7481,7498,7494,7496,7482
2423,6845,6893,7499,7473,6901,7500,7501,7476
2424,6892,7502,7499,6893,7503,7504,7500,6896
2425,7480,7473,7499,7502,7484,7501,7504,7505
2426,7488,7491,7506,7507,7495,7508,7509,7510
2427,7480,7502,7506,7491,7505,7511,7508,7498
2428,6892,7507,7506,7502,7512,7509,7511,7503
2429,7290,7513,7514,7515,7516,7517,7518,7519
2430,7520,7521,7514,7513,7522,7523,7517,7524
2431,7525,7515,7514,7521,7526,7518,7523,7527
2432,7528,7529,7530,7531,7532,7533,7534,7535
2433,7287,7536,7530,7529,7537,7538,7533,7539
2434,7525,7531,7530,7536,7540,7534,7538,7541
2435,7290,7515,7542,7291,7519,7543,7544,7294
2436,7525,7536,7542,7515,7541,7545,7543,7526
2437,7287,7291,7542,7536,7299,7544,7545,7537
2438,7546,7547,7548,7549,7550,7551,7552,7553
2439,7554,7555,7548,7547,7556,7557,7551,7558
2440,7320,7549,7548,7555,7559,7552,7557,7560
2441,7290,7310,7561,7562,7314,7563,7564,7565
2442,7320,7555,7561,7310,7560,7566,7563,7321
2443,7554,7562,7561,7555,7567,7564,7566,7556
2444,7290,7562,7568,7513,7565,7569,7570,7516
2445,7554,7571,7568,7562,7572,7573,7569,7567
2446,7520,7513,7568,7571,7524,7570,7573,7574
2447,6976,7575,7576,7043,7577,7578,7579,7053
2448,7580,7581,7576,7575,7582,7583,7578,7584
2449,7040,7043,7576,7581,7047,7579,7583,7585
2450,1025,7586,7587,6715,7588,7589,7590,6716
2451,6649,7591,7587,7586,7592,7593,7589,7594
2452,6718,6715,7587,7591,6720,7590,7593,7595
2453,1025,1020,7596,7586,1029,7597,7598,7588
2454,80,7599,7596,1020,7600,7601,7597,1022
2455,6649,7586,7596,7599,7594,7598,7601,7602
2456,80,75,7603,7599,84,7604,7605,7600
2457,25,6650,7603,75,6655,7606,7604,77
2458,6649,7599,7603,6650,7602,7605,7606,6651
2459,7546,7607,7608,7609,7610,7611,7612,7613
2460,6992,7614,7608,7607,7615,7616,7611,7617
2461,7618,7609,7608,7614,7619,7612,7616,7620
2462,7520,7571,7621,7622,7574,7623,7624,7625
2463,7554,7626,7621,7571,7627,7628,7623,7572
2464,7618,7622,7621,7626,7629,7624,7628,7630
2465,7546,7609,7631,7547,7613,7632,7633,7550
2466,7618,7626,7631,7609,7630,7634,7632,7619
2467,7554,7547,7631,7626,7558,7633,7634,7627
2468,7520,7635,7636,7521,7637,7638,7639,7522
2469,7008,7640,7636,7635,7641,7642,7638,7643
2470,7525,7521,7636,7640,7527,7639,7642,7644
2471,7528,7531,7645,7646,7535,7647,7648,7649
2472,7525,7640,7645,7531,7644,7650,7647,7540
2473,7008,7646,7645,7640,7651,7648,7650,7641
2474,7528,7646,7652,7653,7649,7654,7655,7656
2475,7008,7004,7652,7646,7010,7657,7654,7651
2476,7003,7653,7652,7004,7658,7655,7657,7005
2477,6829,7659,7660,7304,7661,7662,7663,7305
2478,7664,7665,7660,7659,7666,7667,7662,7668
2479,7282,7304,7660,7665,7307,7663,7667,7669
2480,7290,7293,7670,7671,7297,7672,7673,7674
2481,7282,7665,7670,7293,7669,7675,7672,7300
2482,7664,7671,7670,7665,7676,7673,7675,7666
2483,6829,7336,7677,7659,7339,7678,7679,7661
2484,7315,7680,7677,7336,7681,7682,7678,7337
2485,7664,7659,7677,7680,7668,7679,7682,7683
2486,7290,7671,7684,7308,7674,7685,7686,7311
2487,7664,7680,7684,7671,7683,7687,7685,7676
2488,7315,7308,7684,7680,7319,7686,7687,7681
2489,6787,7435,7688,7689,7438,7690,7691,7692
2490,7408,7693,7688,7435,7694,7695,7690,7440
2491,7048,7689,7688,7693,7696,7691,7695,7697
2492,6976,7049,7698,7405,7054,7699,7700,7406
2493,7048,7693,7698,7049,7697,7701,7699,7050
2494,7408,7405,7698,7693,7410,7700,7701,7694
2495,6691,7702,7703,7704,7705,7706,7707,7708
2496,7250,7243,7703,7702,7254,7709,7706,7710
2497,7212,7704,7703,7243,7711,7707,7709,7246
2498,6734,7266,7712,7713,7269,7714,7715,7716
2499,7255,7251,7712,7266,7257,7717,7714,7273
2500,7250,7713,7712,7251,7718,7715,7717,7252
2501,6691,6687,7719,7702,6693,7720,7721,7705
2502,6671,7722,7719,6687,7723,7724,7720,6688
2503,7250,7702,7719,7722,7710,7721,7724,7725
2504,6734,7713,7726,7217,7716,7727,7728,7227
2505,7250,7722,7726,7713,7725,7729,7727,7718
2506,6671,7217,7726,7722,7221,7728,7729,7723
2507,7470,7730,7731,7732,7733,7734,7735,7736
2508,6987,7737,7731,7730,7738,7739,7734,7740
2509,7040,7732,7731,7737,7741,7735,7739,7742
2510,6702,7743,7744,7126,7745,7746,7747,7135
2511,7092,7087,7744,7743,7096,7748,7746,7749
2512,6795,7126,7744,7087,7130,7747,7748,7089
2513,6756,7067,7750,7751,7070,7752,7753,7754
2514,7074,7093,7750,7067,7097,7755,7752,7075
2515,7092,7751,7750,7093,7756,7753,7755,7094
2516,6702,7143,7757,7743,7147,7758,7759,7745
2517,7152,7760,7757,7143,7761,7762,7758,7153
2518,7092,7743,7757,7760,7749,7759,7762,7763
2519,6756,7751,7764,7162,7754,7765,7766,7163
2520,7092,7760,7764,7751,7763,7767,7765,7756
2521,7152,7162,7764,7760,7167,7766,7767,7761
2522,6761,7768,7769,7770,7771,7772,7773,7774
2523,7775,7776,7769,7768,7777,7778,7772,7779
2524,6638,7770,7769,7776,7780,7773,7778,7781
2525,6641,6656,7782,7783,6662,7784,7785,7786
2526,6638,7776,7782,6656,7781,7787,7784,6658
2527,7775,7783,7782,7776,7788,7785,7787,7777
2528,6761,6757,7789,7768,6763,7790,7791,7771
2529,6756,7792,7789,6757,7793,7794,7790,6758
2530,7775,7768,7789,7792,7779,7791,7794,7795
2531,6641,7783,7796,7155,7786,7797,7798,7158
2532,7775,7792,7796,7783,7795,7799,7797,7788
2533,6756,7155,7796,7792,7165,7798,7799,7793
2534,7022,7800,7801,7023,7802,7803,7804,7026
2535,7805,7806,7801,7800,7807,7808,7803,7809
2536,7019,7023,7801,7806,7031,7804,7808,7810
2537,7022,7811,7812,7800,7813,7814,7815,7802
2538,6945,7816,7812,7811,7817,7818,7814,7819
2539,7805,7800,7812,7816,7809,7815,7818,7820
2540,6940,7821,7822,6941,7823,7824,7825,6942
2541,7805,7816,7822,7821,7820,7826,7824,7827
2542,6945,6941,7822,7816,6947,7825,7826,7817
2543,6940,6949,7828,7829,6959,7830,7831,7832
2544,6948,7833,7828,6949,7834,7835,7830,6952
2545,7836,7829,7828,7833,7837,7831,7835,7838
2546,7839,7840,7841,7842,7843,7844,7845,7846
2547,7836,7833,7841,7840,7838,7847,7844,7848
2548,6948,7842,7841,7833,7849,7845,7847,7834
2549,6940,7829,7850,7851,7832,7852,7853,7854
2550,7836,7855,7850,7829,7856,7857,7852,7837
2551,7858,7851,7850,7855,7859,7853,7857,7860
2552,7836,7840,7861,7855,7848,7862,7863,7856
2553,7839,7864,7861,7840,7865,7866,7862,7843
2554,7858,7855,7861,7864,7860,7863,7866,7867
2555,7868,7869,7870,7871,7872,7873,7874,7875
2556,7876,7877,7870,7869,7878,7879,7873,7880
2557,7881,7871,7870,7877,7882,7874,7879,7883
2558,7884,7885,7886,7887,7888,7889,7890,7891
2559,7892,7893,7886,7885,7894,7895,7889,7896
2560,7897,7887,7886,7893,7898,7890,7895,7899
2561,7900,7901,7902,7903,7904,7905,7906,7907
2562,7897,7893,7902,7901,7899,7908,7905,7909
2563,7892,7903,7902,7893,7910,7906,7908,7894
2564,7868,7911,7912,7913,7914,7915,7916,7917
2565,7918,7919,7912,7911,7920,7921,7915,7922
2566,7892,7913,7912,7919,7923,7916,7921,7924
2567,7900,7903,7925,7926,7907,7927,7928,7929
2568,7892,7919,7925,7903,7924,7930,7927,7910
2569,7918,7926,7925,7919,7931,7928,7930,7920
2570,7019,7806,7932,7933,7810,7934,7935,7936
2571,7805,7937,7932,7806,7938,7939,7934,7807
2572,7858,7933,7932,7937,7940,7935,7939,7941
2573,6940,7851,7942,7821,7854,7943,7944,7823
2574,7858,7937,7942,7851,7941,7945,7943,7859
2575,7805,7821,7942,7937,7827,7944,7945,7938
2576,7485,7946,7947,7948,7949,7950,7951,7952
2577,7953,7954,7947,7946,7955,7956,7950,7957
2578,7958,7948,7947,7954,7959,7951,7956,7960
2579,7176,7961,7962,7963,7964,7965,7966,7967
2580,7953,7968,7962,7961,7969,7970,7965,7971
2581,7972,7963,7962,7968,7973,7966,7970,7974
2582,7972,7975,7976,7977,7978,7979,7980,7981
2583,7982,7983,7976,7975,7984,7985,7979,7986
2584,7987,7977,7976,7983,7988,7980,7985,7989
2585,7176,7990,7991,7177,7992,7993,7994,7178
2586,7995,7996,7991,7990,7997,7998,7993,7999
2587,7181,7177,7991,7996,7183,7994,7998,8000
2588,8001,8002,8003,8004,8005,8006,8007,8008
2589,7181,7996,8003,8002,8000,8009,8006,8010
2590,7995,8004,8003,7996,8011,8007,8009,7997
2591,6940,6933,8012,8013,6944,8014,8015,8016
2592,6932,8017,8012,6933,8018,8019,8014,6936
2593,7900,8013,8012,8017,8020,8015,8019,8021
2594,7897,7901,8022,8023,7909,8024,8025,8026
2595,7900,8017,8022,7901,8021,8027,8024,7904
2596,6932,8023,8022,8017,8028,8025,8027,8018
2597,7918,8029,8030,7926,8031,8032,8033,7931
2598,6960,8034,8030,8029,8035,8036,8032,8037
2599,7900,7926,8030,8034,7929,8033,8036,8038
2600,6940,8013,8039,6956,8016,8040,8041,6957
2601,7900,8034,8039,8013,8038,8042,8040,8020
2602,6960,6956,8039,8034,6962,8041,8042,8035
2603,7881,8043,8044,8045,8046,8047,8048,8049
2604,8050,8051,8044,8043,8052,8053,8047,8054
2605,7184,8045,8044,8051,8055,8048,8053,8056
2606,7060,8057,8058,7456,8059,8060,8061,7457
2607,6987,6980,8058,8057,6991,8062,8060,8063
2608,6979,7456,8058,6980,7461,8061,8062,6983
2609,7618,7614,8064,8065,7620,8066,8067,8068
2610,6992,6988,8064,7614,6994,8069,8066,7615
2611,6987,8065,8064,6988,8070,8067,8069,6989
2612,7060,7055,8071,8057,7064,8072,8073,8059
2613,7040,7737,8071,7055,7742,8074,8072,7057
2614,6987,8057,8071,7737,8063,8073,8074,7738
2615,6801,8075,8076,8077,8078,8079,8080,8081
2616,8082,8083,8076,8075,8084,8085,8079,8086
2617,8087,8077,8076,8083,8088,8080,8085,8089
2618,7048,8090,8091,8092,8093,8094,8095,8096
2619,8087,8083,8091,8090,8089,8097,8094,8098
2620,8082,8092,8091,8083,8099,8095,8097,8084
2621,6801,6804,8100,8075,6808,8101,8102,8078
2622,6729,8103,8100,6804,8104,8105,8101,6814
2623,8082,8075,8100,8103,8086,8102,8105,8106
2624,6729,6780,8107,8103,6783,8108,8109,8104
2625,6787,8110,8107,6780,8111,8112,8108,6788
2626,8082,8103,8107,8110,8106,8109,8112,8113
2627,7048,8092,8114,7689,8096,8115,8116,7696
2628,8082,8110,8114,8092,8113,8117,8115,8099
2629,6787,7689,8114,8110,7692,8116,8117,8111
2630,6971,8118,8119,6972,8120,8121,8122,6973
2631,7580,7575,8119,8118,7584,8123,8121,8124
2632,6976,6972,8119,7575,6978,8122,8123,7577
2633,7470,7732,8125,8126,7736,8127,8128,8129
2634,7040,7581,8125,7732,7585,8130,8127,7741
2635,7580,8126,8125,7581,8131,8128,8130,7582
2636,6971,8132,8133,8118,8134,8135,8136,8120
2637,6995,8137,8133,8132,8138,8139,8135,8140
2638,7580,8118,8133,8137,8124,8136,8139,8141
2639,7470,8126,8142,7463,8129,8143,8144,7471
2640,7580,8137,8142,8126,8141,8145,8143,8131
2641,6995,7463,8142,8137,7466,8144,8145,8138
2642,7488,8146,8147,7489,8148,8149,8150,7492
2643,7982,8151,8147,8146,8152,8153,8149,8154
2644,7485,7489,8147,8151,7497,8150,8153,8155
2645,7953,7946,8156,8157,7957,8158,8159,8160
2646,7485,8151,8156,7946,8155,8161,8158,7949
2647,7982,8157,8156,8151,8162,8159,8161,8152
2648,7488,8163,8164,8146,8165,8166,8167,8148
2649,7987,7983,8164,8163,7989,8168,8166,8169
2650,7982,8146,8164,7983,8154,8167,8168,7984
2651,7953,8157,8170,7968,8160,8171,8172,7969
2652,7982,7975,8170,8157,7986,8173,8171,8162
2653,7972,7968,8170,7975,7974,8172,8173,7978
2654,7892,8174,8175,8176,8177,8178,8179,8180
2655,8181,8182,8175,8174,8183,8184,8178,8185
2656,8186,8176,8175,8182,8187,8179,8184,8188
2657,8001,8189,8190,8191,8192,8193,8194,8195
2658,8186,8182,8190,8189,8188,8196,8193,8197
2659,8181,8191,8190,8182,8198,8194,8196,8183
2660,7892,7885,8199,8174,7896,8200,8201,8177
2661,7884,8202,8199,7885,8203,8204,8200,7888
2662,8181,8174,8199,8202,8185,8201,8204,8205
2663,7884,8206,8207,8202,8208,8209,8210,8203
2664,8001,8191,8207,8206,8195,8211,8209,8212
2665,8181,8202,8207,8191,8205,8210,8211,8198
2666,8186,8213,8214,8215,8216,8217,8218,8219
2667,7995,8220,8214,8213,8221,8222,8217,8223
2668,8050,8215,8214,8220,8224,8218,8222,8225
2669,8186,8189,8226,8213,8197,8227,8228,8216
2670,8001,8004,8226,8189,8008,8229,8227,8192
2671,7995,8213,8226,8004,8223,8228,8229,8011
2672,7892,8230,8231,7913,8232,8233,8234,7923
2673,7876,7869,8231,8230,7880,8235,8233,8236
2674,7868,7913,8231,7869,7917,8234,8235,7872
2675,8050,8043,8237,8238,8054,8239,8240,8241
2676,7881,7877,8237,8043,7883,8242,8239,8046
2677,7876,8238,8237,7877,8243,8240,8242,7878
2678,7892,8176,8244,8230,8180,8245,8246,8232
2679,8186,8247,8244,8176,8248,8249,8245,8187
2680,7876,8230,8244,8247,8236,8246,8249,8250
2681,8050,8238,8251,8215,8241,8252,8253,8224
2682,7876,8247,8251,8238,8250,8254,8252,8243
2683,8186,8215,8251,8247,8219,8253,8254,8248
2684,8050,8220,8255,8051,8225,8256,8257,8052
2685,7995,8258,8255,8220,8259,8260,8256,8221
2686,7184,8051,8255,8258,8056,8257,8260,8261
2687,7176,7185,8262,7990,7195,8263,8264,7992
2688,7184,8258,8262,7185,8261,8265,8263,7188
2689,7995,7990,8262,8258,7999,8264,8265,8259
2690,8087,8266,8267,8268,8269,8270,8271,8272
2691,8273,8274,8267,8266,8275,8276,8270,8277
2692,7448,8268,8267,8274,8278,8271,8276,8279
2693,7060,7449,8280,8281,7459,8282,8283,8284
2694,7448,8274,8280,7449,8279,8285,8282,7452
2695,8273,8281,8280,8274,8286,8283,8285,8275
2696,8087,8090,8287,8266,8098,8288,8289,8269
2697,7048,8290,8287,8090,8291,8292,8288,8093
2698,8273,8266,8287,8290,8277,8289,8292,8293
2699,7060,8281,8294,7061,8284,8295,8296,7062
2700,8273,8290,8294,8281,8293,8297,8295,8286
2701,7048,7061,8294,8290,7065,8296,8297,8291
2702,7839,8298,8299,7864,8300,8301,8302,7865
2703,8303,8304,8299,8298,8305,8306,8301,8307
2704,7858,7864,8299,8304,7867,8302,8306,8308
2705,7019,7933,8309,8310,7936,8311,8312,8313
2706,7858,8304,8309,7933,8308,8314,8311,7940
2707,8303,8310,8309,8304,8315,8312,8314,8305
2708,7839,8316,8317,8298,8318,8319,8320,8300
2709,6884,8321,8317,8316,8322,8323,8319,8324
2710,8303,8298,8317,8321,8307,8320,8323,8325
2711,7019,8310,8326,7036,8313,8327,8328,7037
2712,8303,8321,8326,8310,8325,8329,8327,8315
2713,6884,7036,8326,8321,7039,8328,8329,8322
2714,7212,8330,8331,7704,8332,8333,8334,7711
2715,7103,7098,8331,8330,7107,8335,8333,8336
2716,6691,7704,8331,7098,7708,8334,8335,7100
2717,7116,7124,8337,8338,7134,8339,8340,8341
2718,6795,7104,8337,7124,7108,8342,8339,7127
2719,7103,8338,8337,7104,8343,8340,8342,7105
2720,7212,7208,8344,8330,7214,8345,8346,8332
2721,7207,7418,8344,7208,7423,8347,8345,7209
2722,7103,8330,8344,7418,8336,8346,8347,7419
2723,7116,8338,8348,7117,8341,8349,8350,7118
2724,7103,7411,8348,8338,7421,8351,8349,8343
2725,7121,7117,8348,7411,7123,8350,8351,7414
2726,7176,7169,8352,7961,7180,8353,8354,7964
2727,7168,8355,8352,7169,8356,8357,8353,7172
2728,7953,7961,8352,8355,7971,8354,8357,8358
2729,7958,7954,8359,8360,7960,8361,8362,8363
2730,7953,8355,8359,7954,8358,8364,8361,7955
2731,7168,8360,8359,8355,8365,8362,8364,8356
2732,7618,8366,8367,7622,8368,8369,8370,7629
2733,8371,8372,8367,8366,8373,8374,8369,8375
2734,7520,7622,8367,8372,7625,8370,8374,8376
2735,7618,8065,8377,8366,8068,8378,8379,8368
2736,6987,8380,8377,8065,8381,8382,8378,8070
2737,8371,8366,8377,8380,8375,8379,8382,8383
2738,7470,8384,8385,7730,8386,8387,8388,7733
2739,8371,8380,8385,8384,8383,8389,8387,8390
2740,6987,7730,8385,8380,7740,8388,8389,8381
2741,6718,8391,8392,7148,8393,8394,8395,7149
2742,8396,8397,8392,8391,8398,8399,8394,8400
2743,7152,7148,8392,8397,7154,8395,8399,8401
2744,6641,7157,8402,8403,7161,8404,8405,8406
2745,7152,8397,8402,7157,8401,8407,8404,7166
2746,8396,8403,8402,8397,8408,8405,8407,8398
2747,6718,7591,8409,8391,7595,8410,8411,8393
2748,6649,8412,8409,7591,8413,8414,8410,7592
2749,8396,8391,8409,8412,8400,8411,8414,8415
2750,6641,8403,8416,6642,8406,8417,8418,6645
2751,8396,8412,8416,8403,8415,8419,8417,8408
2752,6649,6642,8416,8412,6653,8418,8419,8413
2753,6694,8420,8421,6695,8422,8423,8424,6698
2754,8425,8426,8421,8420,8427,8428,8423,8429
2755,6702,6695,8421,8426,6706,8424,8428,8430
2756,6718,7141,8431,8432,7151,8433,8434,8435
2757,6702,8426,8431,7141,8430,8436,8433,7144
2758,8425,8432,8431,8426,8437,8434,8436,8427
2759,6694,8438,8439,8420,8440,8441,8442,8422
2760,6745,8443,8439,8438,8444,8445,8441,8446
2761,8425,8420,8439,8443,8429,8442,8445,8447
2762,6718,8432,8448,6864,8435,8449,8450,6869
2763,8425,8443,8448,8432,8447,8451,8449,8437
2764,6745,6864,8448,8443,6867,8450,8451,8444
2765,7987,8452,8453,7977,8454,8455,8456,7988
2766,7196,8457,8453,8452,8458,8459,8455,8460
2767,7972,7977,8453,8457,7981,8456,8459,8461
2768,7176,7963,8462,7192,7967,8463,8464,7193
2769,7972,8457,8462,7963,8461,8465,8463,7973
2770,7196,7192,8462,8457,7198,8464,8465,8458
2771,7520,8372,8466,7635,8376,8467,8468,7637
2772,8371,8469,8466,8372,8470,8471,8467,8373
2773,7008,7635,8466,8469,7643,8468,8471,8472
2774,7470,7467,8473,8384,7472,8474,8475,8386
2775,7008,8469,8473,7467,8472,8476,8474,7468
2776,8371,8384,8473,8469,8390,8475,8476,8470
2777,1811,1869,8477,8478,1872,8479,8480,8481
2778,97,6738,8477,1869,6741,8482,8479,1870
2779,6745,8478,8477,6738,8483,8480,8482,6746
2780,8484,8485,8486,8487,8488,8489,8490,8491
2781,8492,8493,8486,8485,8494,8495,8489,8496
2782,1811,8487,8486,8493,8497,8490,8495,8498
2783,6745,8499,8500,8478,8501,8502,8503,8483
2784,8484,8487,8500,8499,8491,8504,8502,8505
2785,1811,8478,8500,8487,8481,8503,8504,8497
2786,7199,8506,8507,7200,8508,8509,8510,7203
2787,8511,8512,8507,8506,8513,8514,8509,8515
2788,7207,7200,8507,8512,7211,8510,8514,8516
2789,8517,8518,8519,8520,8521,8522,8523,8524
2790,8511,8525,8519,8518,8526,8527,8522,8528
2791,8529,8520,8519,8525,8530,8523,8527,8531
2792,1791,2700,8532,8533,2706,8534,8535,8536
2793,2694,8537,8532,2700,8538,8539,8534,2702
2794,8540,8533,8532,8537,8541,8535,8539,8542
2795,1841,1844,8543,8544,1848,8545,8546,8547
2796,1791,8548,8543,1844,8549,8550,8545,1851
2797,8551,8544,8543,8548,8552,8546,8550,8553
2798,8554,8555,8556,8557,8558,8559,8560,8561
2799,8562,8563,8556,8555,8564,8565,8559,8566
2800,8567,8557,8556,8563,8568,8560,8565,8569
2801,8570,8571,8572,8573,8574,8575,8576,8577
2802,8578,8579,8572,8571,8580,8581,8575,8582
2803,8583,8573,8572,8579,8584,8576,8581,8585
2804,8586,8587,8588,8589,8590,8591,8592,8593
2805,8567,8594,8588,8587,8595,8596,8591,8597
2806,8598,8589,8588,8594,8599,8592,8596,8600
2807,6707,8601,8602,6697,8603,8604,8605,6708
2808,8606,8607,8602,8601,8608,8609,8604,8610
2809,6694,6697,8602,8607,6701,8605,8609,8611
2810,6889,6885,8612,8613,6891,8614,8615,8616
2811,6884,8617,8612,6885,8618,8619,8614,6886
2812,8620,8613,8612,8617,8621,8615,8619,8622
2813,6892,6895,8623,8624,6899,8625,8626,8627
2814,6840,8628,8623,6895,8629,8630,8625,6902
2815,8631,8624,8623,8628,8632,8626,8630,8633
2816,6840,6904,8634,8635,6907,8636,8637,8638
2817,6856,8639,8634,6904,8640,8641,8636,6909
2818,8642,8635,8634,8639,8643,8637,8641,8644
2819,7207,8645,8646,7413,8647,8648,8649,7422
2820,8517,8650,8646,8645,8651,8652,8648,8653
2821,7121,7413,8646,8650,7417,8649,8652,8654
2822,7207,8512,8655,8645,8516,8656,8657,8647
2823,8511,8518,8655,8512,8528,8658,8656,8513
2824,8517,8645,8655,8518,8653,8657,8658,8521
2825,8567,8587,8659,8660,8597,8661,8662,8663
2826,8586,8664,8659,8587,8665,8666,8661,8590
2827,8667,8660,8659,8664,8668,8662,8666,8669
2828,8529,8670,8671,8520,8672,8673,8674,8530
2829,8675,8676,8671,8670,8677,8678,8673,8679
2830,8517,8520,8671,8676,8524,8674,8678,8680
2831,8620,8681,8682,8683,8684,8685,8686,8687
2832,8688,8689,8682,8681,8690,8691,8685,8692
2833,8693,8683,8682,8689,8694,8686,8691,8695
2834,8551,8548,8696,8697,8553,8698,8699,8700
2835,1791,8533,8696,8548,8536,8701,8698,8549
2836,8540,8697,8696,8533,8702,8699,8701,8541
2837,8631,8628,8703,8704,8633,8705,8706,8707
2838,6840,8635,8703,8628,8638,8708,8705,8629
2839,8642,8704,8703,8635,8709,8706,8708,8643
2840,6856,8710,8711,8639,8712,8713,8714,8640
2841,8715,8716,8711,8710,8717,8718,8713,8719
2842,8642,8639,8711,8716,8644,8714,8718,8720
2843,6910,8721,8722,6911,8723,8724,8725,6914
2844,8715,8710,8722,8721,8719,8726,8724,8727
2845,6856,6911,8722,8710,6919,8725,8726,8712
2846,6801,8728,8729,6802,8730,8731,8732,6805
2847,8586,8733,8729,8728,8734,8735,8731,8736
2848,6809,6802,8729,8733,6813,8732,8735,8737
2849,6960,8738,8739,6951,8740,8741,8742,6961
2850,8743,8744,8739,8738,8745,8746,8741,8747
2851,6948,6951,8739,8744,6955,8742,8746,8748
2852,8749,8750,8751,8752,8753,8754,8755,8756
2853,8743,8757,8751,8750,8758,8759,8754,8760
2854,8761,8752,8751,8757,8762,8755,8759,8763
2855,8087,8268,8764,8765,8272,8766,8767,8768
2856,7448,8769,8764,8268,8770,8771,8766,8278
2857,8772,8765,8764,8769,8773,8767,8771,8774
2858,8775,8776,8777,8778,8779,8780,8781,8782
2859,8783,8784,8777,8776,8785,8786,8780,8787
2860,8788,8778,8777,8784,8789,8781,8786,8790
2861,6979,6982,8791,8792,6986,8793,8794,8795
2862,6992,8796,8791,6982,8797,8798,8793,6993
2863,8799,8792,8791,8796,8800,8794,8798,8801
2864,8620,8617,8802,8803,8622,8804,8805,8806
2865,6884,8807,8802,8617,8808,8809,8804,8618
2866,8810,8803,8802,8807,8811,8805,8809,8812
2867,7839,8813,8814,8316,8815,8816,8817,8318
2868,8810,8807,8814,8813,8812,8818,8816,8819
2869,6884,8316,8814,8807,8324,8817,8818,8808
2870,8620,8803,8820,8681,8806,8821,8822,8684
2871,8810,8823,8820,8803,8824,8825,8821,8811
2872,8688,8681,8820,8823,8692,8822,8825,8826
2873,8827,8828,8829,8830,8831,8832,8833,8834
2874,8835,8836,8829,8828,8837,8838,8832,8839
2875,8772,8830,8829,8836,8840,8833,8838,8841
2876,8827,8842,8843,8828,8844,8845,8846,8831
2877,8847,8848,8843,8842,8849,8850,8845,8851
2878,8835,8828,8843,8848,8839,8846,8850,8852
2879,8675,8853,8854,8855,8856,8857,8858,8859
2880,8860,8861,8854,8853,8862,8863,8857,8864
2881,8865,8855,8854,8861,8866,8858,8863,8867
2882,8517,8676,8868,8869,8680,8870,8871,8872
2883,8675,8855,8868,8676,8859,8873,8870,8677
2884,8865,8869,8868,8855,8874,8871,8873,8866
2885,8606,8601,8875,8876,8610,8877,8878,8879
2886,6707,8880,8875,8601,8881,8882,8877,8603
2887,8865,8876,8875,8880,8883,8878,8882,8884
2888,8583,8885,8886,8887,8888,8889,8890,8891
2889,8892,8893,8886,8885,8894,8895,8889,8896
2890,8897,8887,8886,8893,8898,8890,8895,8899
2891,8529,8900,8901,8670,8902,8903,8904,8672
2892,8905,8906,8901,8900,8907,8908,8903,8909
2893,8675,8670,8901,8906,8679,8904,8908,8910
2894,8583,8579,8911,8885,8585,8912,8913,8888
2895,8578,8914,8911,8579,8915,8916,8912,8580
2896,8892,8885,8911,8914,8896,8913,8916,8917
2897,8675,8918,8919,8920,8921,8922,8923,8924
2898,8892,8914,8919,8918,8917,8925,8922,8926
2899,8578,8920,8919,8914,8927,8923,8925,8915
2900,8484,8928,8929,8930,8931,8932,8933,8934
2901,8606,8935,8929,8928,8936,8937,8932,8938
2902,8939,8930,8929,8935,8940,8933,8937,8941
2903,8578,8942,8943,8944,8945,8946,8947,8948
2904,8540,8949,8943,8942,8950,8951,8946,8952
2905,8939,8944,8943,8949,8953,8947,8951,8954
2906,7196,8955,8956,7187,8957,8958,8959,7197
2907,8960,8961,8956,8955,8962,8963,8958,8964
2908,7184,7187,8956,8961,7191,8959,8963,8965
2909,8966,8967,8968,8969,8970,8971,8972,8973
2910,8960,8974,8968,8967,8975,8976,8971,8977
2911,8978,8969,8968,8974,8979,8972,8976,8980
2912,8981,8982,8983,8984,8985,8986,8987,8988
2913,8989,8990,8983,8982,8991,8992,8986,8993
2914,8994,8984,8983,8990,8995,8987,8992,8996
2915,8511,8997,8998,8999,9000,9001,9002,9003
2916,9004,9005,8998,8997,9006,9007,9001,9008
2917,8598,8999,8998,9005,9009,9002,9007,9010
2918,8586,8589,9011,9012,8593,9013,9014,9015
2919,8598,9005,9011,8589,9010,9016,9013,8599
2920,9004,9012,9011,9005,9017,9014,9016,9006
2921,8511,8506,9018,8997,8515,9019,9020,9000
2922,7199,9021,9018,8506,9022,9023,9019,8508
2923,9004,8997,9018,9021,9008,9020,9023,9024
2924,8994,9025,9026,9027,9028,9029,9030,9031
2925,9032,9033,9026,9025,9034,9035,9029,9036
2926,9037,9027,9026,9033,9038,9030,9035,9039
2927,8981,8984,9040,9041,8988,9042,9043,9044
2928,8994,9027,9040,8984,9031,9045,9042,8995
2929,9037,9041,9040,9027,9046,9043,9045,9038
2930,8598,8594,9047,9048,8600,9049,9050,9051
2931,8567,9052,9047,8594,9053,9054,9049,8595
2932,9037,9048,9047,9052,9055,9050,9054,9056
2933,6889,9057,9058,7323,9059,9060,9061,7326
2934,9062,9063,9058,9057,9064,9065,9060,9066
2935,7320,7323,9058,9063,7331,9061,9065,9067
2936,9068,9069,9070,9071,9072,9073,9074,9075
2937,7320,9063,9070,9069,9067,9076,9073,9077
2938,9062,9071,9070,9063,9078,9074,9076,9064
2939,6889,8613,9079,9057,8616,9080,9081,9059
2940,8620,9082,9079,8613,9083,9084,9080,8621
2941,9062,9057,9079,9082,9066,9081,9084,9085
2942,9068,9086,9087,9088,9089,9090,9091,9092
2943,9093,9094,9087,9086,9095,9096,9090,9097
2944,9098,9088,9087,9094,9099,9091,9096,9100
2945,8693,9101,9102,9103,9104,9105,9106,9107
2946,9098,9094,9102,9101,9100,9108,9105,9109
2947,9093,9103,9102,9094,9110,9106,9108,9095
2948,8693,9103,9111,8683,9107,9112,9113,8694
2949,9093,9114,9111,9103,9115,9116,9112,9110
2950,8620,8683,9111,9114,8687,9113,9116,9117
2951,8567,8563,9118,9052,8569,9119,9120,9053
2952,8562,9121,9118,8563,9122,9123,9119,8564
2953,9037,9052,9118,9121,9056,9120,9123,9124
2954,8981,9041,9125,9126,9044,9127,9128,9129
2955,9037,9121,9125,9041,9124,9130,9127,9046
2956,8562,9126,9125,9121,9131,9128,9130,9122
2957,8586,9012,9132,8733,9015,9133,9134,8734
2958,9004,9135,9132,9012,9136,9137,9133,9017
2959,6809,8733,9132,9135,8737,9134,9137,9138
2960,7199,7348,9139,9021,7351,9140,9141,9022
2961,6809,9135,9139,7348,9138,9142,9140,7353
2962,9004,9021,9139,9135,9024,9141,9142,9136
2963,8517,9143,9144,8650,9145,9146,9147,8651
2964,9148,9149,9144,9143,9150,9151,9146,9152
2965,7121,8650,9144,9149,8654,9147,9151,9153
2966,6707,7111,9154,9155,7115,9156,9157,9158
2967,7121,9149,9154,7111,9153,9159,9156,7122
2968,9148,9155,9154,9149,9160,9157,9159,9150
2969,8517,8869,9161,9143,8872,9162,9163,9145
2970,8865,9164,9161,8869,9165,9166,9162,8874
2971,9148,9143,9161,9164,9152,9163,9166,9167
2972,6707,9155,9168,8880,9158,9169,9170,8881
2973,9148,9164,9168,9155,9167,9171,9169,9160
2974,8865,8880,9168,9164,8884,9170,9171,9165
2975,8087,8765,9172,9173,8768,9174,9175,9176
2976,8772,9177,9172,8765,9178,9179,9174,8773
2977,9180,9173,9172,9177,9181,9175,9179,9182
2978,8897,9183,9184,9185,9186,9187,9188,9189
2979,8905,9190,9184,9183,9191,9192,9187,9193
2980,8989,9185,9184,9190,9194,9188,9192,9195
2981,6801,8077,9196,9197,8081,9198,9199,9200
2982,8087,9173,9196,8077,9176,9201,9198,8088
2983,9180,9197,9196,9173,9202,9199,9201,9181
2984,8667,8664,9203,9204,8669,9205,9206,9207
2985,8586,9208,9203,8664,9209,9210,9205,8665
2986,9180,9204,9203,9208,9211,9206,9210,9212
2987,6801,9197,9213,8728,9200,9214,9215,8730
2988,9180,9208,9213,9197,9212,9216,9214,9202
2989,8586,8728,9213,9208,8736,9215,9216,9209
2990,9217,9218,9219,9220,9221,9222,9223,9224
2991,8847,9225,9219,9218,9226,9227,9222,9228
2992,8775,9220,9219,9225,9229,9223,9227,9230
2993,6979,8792,9231,9232,8795,9233,9234,9235
2994,8799,9236,9231,8792,9237,9238,9233,8800
2995,9239,9232,9231,9236,9240,9234,9238,9241
2996,6892,9242,9243,7507,9244,9245,9246,7512
2997,9247,9248,9243,9242,9249,9250,9245,9251
2998,7488,7507,9243,9248,7510,9246,9250,9252
2999,9253,9254,9255,9256,9257,9258,9259,9260
3000,7488,9248,9255,9254,9252,9261,9258,9262
3001,9247,9256,9255,9248,9263,9259,9261,9249
3002,6892,8624,9264,9242,8627,9265,9266,9244
3003,8631,9267,9264,8624,9268,9269,9265,8632
3004,9247,9242,9264,9267,9251,9266,9269,9270
3005,9253,9256,9271,9272,9260,9273,9274,9275
3006,9247,9267,9271,9256,9270,9276,9273,9263
3007,8631,9272,9271,9267,9277,9274,9276,9268
3008,9068,9278,9279,9069,9280,9281,9282,9072
3009,9283,9284,9279,9278,9285,9286,9281,9287
3010,7320,9069,9279,9284,9077,9282,9286,9288
3011,7546,7549,9289,9290,7553,9291,9292,9293
3012,7320,9284,9289,7549,9288,9294,9291,7559
3013,9283,9290,9289,9284,9295,9292,9294,9285
3014,9068,9296,9297,9278,9298,9299,9300,9280
3015,9301,9302,9297,9296,9303,9304,9299,9305
3016,9283,9278,9297,9302,9287,9300,9304,9306
3017,9307,9308,9309,9310,9311,9312,9313,9314
3018,9315,9316,9309,9308,9317,9318,9312,9319
3019,9098,9310,9309,9316,9320,9313,9318,9321
3020,9068,9088,9322,9323,9092,9324,9325,9326
3021,9098,9316,9322,9088,9321,9327,9324,9099
3022,9315,9323,9322,9316,9328,9325,9327,9317
3023,9068,9323,9329,9296,9326,9330,9331,9298
3024,9315,9332,9329,9323,9333,9334,9330,9328
3025,9301,9296,9329,9332,9305,9331,9334,9335
3026,8772,9336,9337,8830,9338,9339,9340,8840
3027,9341,9342,9337,9336,9343,9344,9339,9345
3028,8827,8830,9337,9342,8834,9340,9344,9346
3029,2694,9347,9348,8537,9349,9350,9351,8538
3030,8492,9352,9348,9347,9353,9354,9350,9355
3031,8540,8537,9348,9352,8542,9351,9354,9356
3032,2694,2689,9357,9347,2698,9358,9359,9349
3033,1824,9360,9357,2689,9361,9362,9358,2691
3034,8492,9347,9357,9360,9355,9359,9362,9363
3035,1824,1819,9364,9360,1828,9365,9366,9361
3036,1811,8493,9364,1819,8498,9367,9365,1821
3037,8492,9360,9364,8493,9363,9366,9367,8494
3038,9307,9368,9369,9370,9371,9372,9373,9374
3039,8788,9375,9369,9368,9376,9377,9372,9378
3040,9379,9370,9369,9375,9380,9373,9377,9381
3041,9301,9332,9382,9383,9335,9384,9385,9386
3042,9315,9387,9382,9332,9388,9389,9384,9333
3043,9379,9383,9382,9387,9390,9385,9389,9391
3044,9307,9370,9392,9308,9374,9393,9394,9311
3045,9379,9387,9392,9370,9391,9395,9393,9380
3046,9315,9308,9392,9387,9319,9394,9395,9388
3047,7546,9396,9397,7607,9398,9399,9400,7610
3048,8799,8796,9397,9396,8801,9401,9399,9402
3049,6992,7607,9397,8796,7617,9400,9401,8797
3050,7546,9290,9403,9396,9293,9404,9405,9398
3051,9283,9406,9403,9290,9407,9408,9404,9295
3052,8799,9396,9403,9406,9402,9405,9408,9409
3053,9301,9410,9411,9302,9412,9413,9414,9303
3054,8799,9406,9411,9410,9409,9415,9413,9416
3055,9283,9302,9411,9406,9306,9414,9415,9407
3056,8620,9417,9418,9082,9419,9420,9421,9083
3057,9422,9423,9418,9417,9424,9425,9420,9426
3058,9062,9082,9418,9423,9085,9421,9425,9427
3059,9068,9071,9428,9429,9075,9430,9431,9432
3060,9062,9423,9428,9071,9427,9433,9430,9078
3061,9422,9429,9428,9423,9434,9431,9433,9424
3062,8620,9114,9435,9417,9117,9436,9437,9419
3063,9093,9438,9435,9114,9439,9440,9436,9115
3064,9422,9417,9435,9438,9426,9437,9440,9441
3065,9068,9429,9442,9086,9432,9443,9444,9089
3066,9422,9438,9442,9429,9441,9445,9443,9434
3067,9093,9086,9442,9438,9097,9444,9445,9439
3068,8667,9204,9446,9447,9207,9448,9449,9450
3069,9180,9451,9446,9204,9452,9453,9448,9211
3070,8835,9447,9446,9451,9454,9449,9453,9455
3071,8772,8836,9456,9177,8841,9457,9458,9178
3072,8835,9451,9456,8836,9455,9459,9457,8837
3073,9180,9177,9456,9451,9182,9458,9459,9452
3074,8529,9460,9461,9462,9463,9464,9465,9466
3075,9032,9025,9461,9460,9036,9467,9464,9468
3076,8994,9462,9461,9025,9469,9465,9467,9028
3077,8598,9048,9470,9471,9051,9472,9473,9474
3078,9037,9033,9470,9048,9039,9475,9472,9055
3079,9032,9471,9470,9033,9476,9473,9475,9034
3080,8529,8525,9477,9460,8531,9478,9479,9463
3081,8511,9480,9477,8525,9481,9482,9478,8526
3082,9032,9460,9477,9480,9468,9479,9482,9483
3083,8598,9471,9484,8999,9474,9485,9486,9009
3084,9032,9480,9484,9471,9483,9487,9485,9476
3085,8511,8999,9484,9480,9003,9486,9487,9481
3086,9239,9488,9489,9490,9491,9492,9493,9494
3087,8783,9495,9489,9488,9496,9497,9492,9498
3088,8827,9490,9489,9495,9499,9493,9497,9500
3089,8606,9501,9502,8935,9503,9504,9505,8936
3090,8860,9506,9502,9501,9507,9508,9504,9509
3091,8939,8935,9502,9506,8941,9505,9508,9510
3092,8578,8944,9511,9512,8948,9513,9514,9515
3093,8939,9506,9511,8944,9510,9516,9513,8953
3094,8860,9512,9511,9506,9517,9514,9516,9507
3095,8606,8876,9518,9501,8879,9519,9520,9503
3096,8865,8861,9518,8876,8867,9521,9519,8883
3097,8860,9501,9518,8861,9509,9520,9521,8862
3098,8578,9512,9522,8920,9515,9523,9524,8927
3099,8860,8853,9522,9512,8864,9525,9523,9517
3100,8675,8920,9522,8853,8924,9524,9525,8856
3101,6694,9526,9527,8438,9528,9529,9530,8440
3102,9531,9532,9527,9526,9533,9534,9529,9535
3103,6745,8438,9527,9532,8446,9530,9534,9536
3104,8484,8499,9537,9538,8505,9539,9540,9541
3105,6745,9532,9537,8499,9536,9542,9539,8501
3106,9531,9538,9537,9532,9543,9540,9542,9533
3107,6694,8607,9544,9526,8611,9545,9546,9528
3108,8606,9547,9544,8607,9548,9549,9545,8608
3109,9531,9526,9544,9547,9535,9546,9549,9550
3110,8484,9538,9551,8928,9541,9552,9553,8931
3111,9531,9547,9551,9538,9550,9554,9552,9543
3112,8606,8928,9551,9547,8938,9553,9554,9548
3113,7839,9555,9556,8813,9557,9558,9559,8815
3114,9560,9561,9556,9555,9562,9563,9558,9564
3115,8810,8813,9556,9561,8819,9559,9563,9565
3116,7839,7842,9566,9555,7846,9567,9568,9557
3117,6948,9569,9566,7842,9570,9571,9567,7849
3118,9560,9555,9566,9569,9564,9568,9571,9572
3119,8743,9573,9574,8744,9575,9576,9577,8745
3120,9560,9569,9574,9573,9572,9578,9576,9579
3121,6948,8744,9574,9569,8748,9577,9578,9570
3122,8743,8750,9580,9581,8760,9582,9583,9584
3123,8749,9585,9580,8750,9586,9587,9582,8753
3124,9588,9581,9580,9585,9589,9583,9587,9590
3125,9591,9592,9593,9594,9595,9596,9597,9598
3126,9588,9585,9593,9592,9590,9599,9596,9600
3127,8749,9594,9593,9585,9601,9597,9599,9586
3128,8743,9581,9602,9603,9584,9604,9605,9606
3129,9588,9607,9602,9581,9608,9609,9604,9589
3130,9610,9603,9602,9607,9611,9605,9609,9612
3131,9588,9592,9613,9607,9600,9614,9615,9608
3132,9591,9616,9613,9592,9617,9618,9614,9595
3133,9610,9607,9613,9616,9612,9615,9618,9619
3134,9620,9621,9622,9623,9624,9625,9626,9627
3135,9628,9629,9622,9621,9630,9631,9625,9632
3136,9633,9623,9622,9629,9634,9626,9631,9635
3137,7868,9636,9637,7911,9638,9639,9640,7914
3138,9641,9642,9637,9636,9643,9644,9639,9645
3139,7918,7911,9637,9642,7922,9640,9644,9646
3140,9647,9648,9649,9650,9651,9652,9653,9654
3141,7918,9642,9649,9648,9646,9655,9652,9656
3142,9641,9650,9649,9642,9657,9653,9655,9643
3143,9620,9658,9659,9660,9661,9662,9663,9664
3144,9665,9666,9659,9658,9667,9668,9662,9669
3145,9641,9660,9659,9666,9670,9663,9668,9671
3146,9647,9650,9672,9673,9654,9674,9675,9676
3147,9641,9666,9672,9650,9671,9677,9674,9657
3148,9665,9673,9672,9666,9678,9675,9677,9667
3149,8810,9561,9679,9680,9565,9681,9682,9683
3150,9560,9684,9679,9561,9685,9686,9681,9562
3151,9610,9680,9679,9684,9687,9682,9686,9688
3152,8743,9603,9689,9573,9606,9690,9691,9575
3153,9610,9684,9689,9603,9688,9692,9690,9611
3154,9560,9573,9689,9684,9579,9691,9692,9685
3155,7488,9693,9694,8163,9695,9696,9697,8165
3156,9698,9699,9694,9693,9700,9701,9696,9702
3157,7987,8163,9694,9699,8169,9697,9701,9703
3158,8960,9704,9705,9706,9707,9708,9709,9710
3159,9698,9711,9705,9704,9712,9713,9708,9714
3160,9715,9706,9705,9711,9716,9709,9713,9717
3161,9715,9718,9719,9720,9721,9722,9723,9724
3162,9725,9726,9719,9718,9727,9728,9722,9729
3163,9730,9720,9719,9726,9731,9723,9728,9732
3164,8960,9733,9734,8961,9735,9736,9737,8962
3165,9738,9739,9734,9733,9740,9741,9736,9742
3166,7184,8961,9734,9739,8965,9737,9741,9743
3167,7881,8045,9744,9745,8049,9746,9747,9748
3168,7184,9739,9744,8045,9743,9749,9746,8055
3169,9738,9745,9744,9739,9750,9747,9749,9740
3170,8743,8738,9751,9752,8747,9753,9754,9755
3171,6960,9756,9751,8738,9757,9758,9753,8740
3172,9647,9752,9751,9756,9759,9754,9758,9760
3173,7918,9648,9761,8029,9656,9762,9763,8031
3174,9647,9756,9761,9648,9760,9764,9762,9651
3175,6960,8029,9761,9756,8037,9763,9764,9757
3176,9665,9765,9766,9673,9767,9768,9769,9678
3177,8761,9770,9766,9765,9771,9772,9768,9773
3178,9647,9673,9766,9770,9676,9769,9772,9774
3179,8743,9752,9775,8757,9755,9776,9777,8758
3180,9647,9770,9775,9752,9774,9778,9776,9759
3181,8761,8757,9775,9770,8763,9777,9778,9771
3182,9633,9779,9780,9781,9782,9783,9784,9785
3183,9786,9787,9780,9779,9788,9789,9783,9790
3184,8966,9781,9780,9787,9791,9784,9789,9792
3185,8847,9793,9794,9225,9795,9796,9797,9226
3186,8783,8776,9794,9793,8787,9798,9796,9799
3187,8775,9225,9794,8776,9230,9797,9798,8779
3188,9379,9375,9800,9801,9381,9802,9803,9804
3189,8788,8784,9800,9375,8790,9805,9802,9376
3190,8783,9801,9800,8784,9806,9803,9805,8785
3191,8847,8842,9807,9793,8851,9808,9809,9795
3192,8827,9495,9807,8842,9500,9810,9808,8844
3193,8783,9793,9807,9495,9799,9809,9810,9496
3194,8554,8557,9811,9812,8561,9813,9814,9815
3195,8567,9816,9811,8557,9817,9818,9813,8568
3196,9819,9812,9811,9816,9820,9814,9818,9821
3197,8835,9822,9823,9824,9825,9826,9827,9828
3198,9829,9830,9823,9822,9831,9832,9826,9833
3199,9819,9824,9823,9830,9834,9827,9832,9835
3200,8554,9812,9836,9837,9815,9838,9839,9840
3201,9819,9830,9836,9812,9835,9841,9838,9820
3202,9829,9837,9836,9830,9842,9839,9841,9831
3203,8835,9824,9843,9447,9828,9844,9845,9454
3204,9819,9846,9843,9824,9847,9848,9844,9834
3205,8667,9447,9843,9846,9450,9845,9848,9849
3206,8567,8660,9850,9816,8663,9851,9852,9817
3207,8667,9846,9850,8660,9849,9853,9851,8668
3208,9819,9816,9850,9846,9821,9852,9853,9847
3209,7448,9854,9855,8769,9856,9857,9858,8770
3210,9341,9336,9855,9854,9345,9859,9857,9860
3211,8772,8769,9855,9336,8774,9858,9859,9338
3212,9239,9490,9861,9862,9494,9863,9864,9865
3213,8827,9342,9861,9490,9346,9866,9863,9499
3214,9341,9862,9861,9342,9867,9864,9866,9343
3215,7448,7451,9868,9854,7455,9869,9870,9856
3216,6979,9871,9868,7451,9872,9873,9869,7460
3217,9341,9854,9868,9871,9860,9870,9873,9874
3218,9239,9862,9875,9232,9865,9876,9877,9240
3219,9341,9871,9875,9862,9874,9878,9876,9867
3220,6979,9232,9875,9871,9235,9877,9878,9872
3221,9253,9879,9880,9254,9881,9882,9883,9257
3222,9725,9884,9880,9879,9885,9886,9882,9887
3223,7488,9254,9880,9884,9262,9883,9886,9888
3224,9698,9693,9889,9890,9702,9891,9892,9893
3225,7488,9884,9889,9693,9888,9894,9891,9695
3226,9725,9890,9889,9884,9895,9892,9894,9885
3227,9253,9896,9897,9879,9898,9899,9900,9881
3228,9730,9726,9897,9896,9732,9901,9899,9902
3229,9725,9879,9897,9726,9887,9900,9901,9727
3230,9698,9890,9903,9711,9893,9904,9905,9712
3231,9725,9718,9903,9890,9729,9906,9904,9895
3232,9715,9711,9903,9718,9717,9905,9906,9721
3233,9641,9907,9908,9909,9910,9911,9912,9913
3234,9914,9915,9908,9907,9916,9917,9911,9918
3235,9919,9909,9908,9915,9920,9912,9917,9921
3236,7881,9922,9923,9924,9925,9926,9927,9928
3237,9919,9915,9923,9922,9921,9929,9926,9930
3238,9914,9924,9923,9915,9931,9927,9929,9916
3239,9641,9636,9932,9907,9645,9933,9934,9910
3240,7868,9935,9932,9636,9936,9937,9933,9638
3241,9914,9907,9932,9935,9918,9934,9937,9938
3242,7868,7871,9939,9935,7875,9940,9941,9936
3243,7881,9924,9939,7871,9928,9942,9940,7882
3244,9914,9935,9939,9924,9938,9941,9942,9931
3245,9919,9943,9944,9945,9946,9947,9948,9949
3246,9738,9950,9944,9943,9951,9952,9947,9953
3247,9786,9945,9944,9950,9954,9948,9952,9955
3248,9919,9922,9956,9943,9930,9957,9958,9946
3249,7881,9745,9956,9922,9748,9959,9957,9925
3250,9738,9943,9956,9745,9953,9958,9959,9750
3251,9641,9960,9961,9660,9962,9963,9964,9670
3252,9628,9621,9961,9960,9632,9965,9963,9966
3253,9620,9660,9961,9621,9664,9964,9965,9624
3254,9786,9779,9967,9968,9790,9969,9970,9971
3255,9633,9629,9967,9779,9635,9972,9969,9782
3256,9628,9968,9967,9629,9973,9970,9972,9630
3257,9641,9909,9974,9960,9913,9975,9976,9962
3258,9919,9977,9974,9909,9978,9979,9975,9920
3259,9628,9960,9974,9977,9966,9976,9979,9980
3260,9786,9968,9981,9945,9971,9982,9983,9954
3261,9628,9977,9981,9968,9980,9984,9982,9973
3262,9919,9945,9981,9977,9949,9983,9984,9978
3263,9786,9950,9985,9787,9955,9986,9987,9788
3264,9738,9988,9985,9950,9989,9990,9986,9951
3265,8966,9787,9985,9988,9792,9987,9990,9991
3266,8960,8967,9992,9733,8977,9993,9994,9735
3267,8966,9988,9992,8967,9991,9995,9993,8970
3268,9738,9733,9992,9988,9742,9994,9995,9989
3269,9829,9996,9997,9998,9999,10000,10001,10002
3270,10003,10004,9997,9996,10005,10006,10000,10007
3271,9217,9998,9997,10004,10008,10001,10006,10009
3272,8847,9218,10010,10011,9228,10012,10013,10014
3273,9217,10004,10010,9218,10009,10015,10012,9221
3274,10003,10011,10010,10004,10016,10013,10015,10005
3275,9829,9822,10017,9996,9833,10018,10019,9999
3276,8835,10020,10017,9822,10021,10022,10018,9825
3277,10003,9996,10017,10020,10007,10019,10022,10023
3278,8847,10011,10024,8848,10014,10025,10026,8849
3279,10003,10020,10024,10011,10023,10027,10025,10016
3280,8835,8848,10024,10020,8852,10026,10027,10021
3281,9591,10028,10029,9616,10030,10031,10032,9617
3282,10033,10034,10029,10028,10035,10036,10031,10037
3283,9610,9616,10029,10034,9619,10032,10036,10038
3284,8810,9680,10039,10040,9683,10041,10042,10043
3285,9610,10034,10039,9680,10038,10044,10041,9687
3286,10033,10040,10039,10034,10045,10042,10044,10035
3287,9591,10046,10047,10028,10048,10049,10050,10030
3288,8688,10051,10047,10046,10052,10053,10049,10054
3289,10033,10028,10047,10051,10037,10050,10053,10055
3290,8810,10040,10056,8823,10043,10057,10058,8824
3291,10033,10051,10056,10040,10055,10059,10057,10045
3292,8688,8823,10056,10051,8826,10058,10059,10052
3293,8994,10060,10061,9462,10062,10063,10064,9469
3294,8905,8900,10061,10060,8909,10065,10063,10066
3295,8529,9462,10061,8900,9466,10064,10065,8902
3296,8892,8918,10067,10068,8926,10069,10070,10071
3297,8675,8906,10067,8918,8910,10072,10069,8921
3298,8905,10068,10067,8906,10073,10070,10072,8907
3299,8994,8990,10074,10060,8996,10075,10076,10062
3300,8989,9190,10074,8990,9195,10077,10075,8991
3301,8905,10060,10074,9190,10066,10076,10077,9191
3302,8892,10068,10078,8893,10071,10079,10080,8894
3303,8905,9183,10078,10068,9193,10081,10079,10073
3304,8897,8893,10078,9183,8899,10080,10081,9186
3305,8960,8955,10082,9704,8964,10083,10084,9707
3306,7196,10085,10082,8955,10086,10087,10083,8957
3307,9698,9704,10082,10085,9714,10084,10087,10088
3308,7987,9699,10089,8452,9703,10090,10091,8454
3309,9698,10085,10089,9699,10088,10092,10090,9700
3310,7196,8452,10089,10085,8460,10091,10092,10086
3311,9379,10093,10094,9383,10095,10096,10097,9390
3312,10098,10099,10094,10093,10100,10101,10096,10102
3313,9301,9383,10094,10099,9386,10097,10101,10103
3314,9379,9801,10104,10093,9804,10105,10106,10095
3315,8783,10107,10104,9801,10108,10109,10105,9806
3316,10098,10093,10104,10107,10102,10106,10109,10110
3317,9239,10111,10112,9488,10113,10114,10115,9491
3318,10098,10107,10112,10111,10110,10116,10114,10117
3319,8783,9488,10112,10107,9498,10115,10116,10108
3320,8484,10118,10119,8485,10120,10121,10122,8488
3321,10123,10124,10119,10118,10125,10126,10121,10127
3322,8492,8485,10119,10124,8496,10122,10126,10128
3323,8540,9352,10129,10130,9356,10131,10132,10133
3324,8492,10124,10129,9352,10128,10134,10131,9353
3325,10123,10130,10129,10124,10135,10132,10134,10125
3326,8484,8930,10136,10118,8934,10137,10138,10120
3327,8939,10139,10136,8930,10140,10141,10137,8940
3328,10123,10118,10136,10139,10127,10138,10141,10142
3329,8540,10130,10143,8949,10133,10144,10145,8950
3330,10123,10139,10143,10130,10142,10146,10144,10135
3331,8939,8949,10143,10139,8954,10145,10146,10140
3332,8570,10147,10148,8571,10149,10150,10151,8574
3333,10152,10153,10148,10147,10154,10155,10150,10156
3334,8578,8571,10148,10153,8582,10151,10155,10157
3335,8540,8942,10158,10159,8952,10160,10161,10162
3336,8578,10153,10158,8942,10157,10163,10160,8945
3337,10152,10159,10158,10153,10164,10161,10163,10154
3338,8570,10165,10166,10147,10167,10168,10169,10149
3339,8551,10170,10166,10165,10171,10172,10168,10173
3340,10152,10147,10166,10170,10156,10169,10172,10174
3341,8540,10159,10175,8697,10162,10176,10177,8702
3342,10152,10170,10175,10159,10174,10178,10176,10164
3343,8551,8697,10175,10170,8700,10177,10178,10171
3344,9730,10179,10180,9720,10181,10182,10183,9731
3345,8978,10184,10180,10179,10185,10186,10182,10187
3346,9715,9720,10180,10184,9724,10183,10186,10188
3347,8960,9706,10189,8974,9710,10190,10191,8975
3348,9715,10184,10189,9706,10188,10192,10190,9716
3349,8978,8974,10189,10184,8980,10191,10192,10185
3350,9301,10099,10193,9410,10103,10194,10195,9412
3351,10098,10196,10193,10099,10197,10198,10194,10100
3352,8799,9410,10193,10196,9416,10195,10198,10199
3353,9239,9236,10200,10111,9241,10201,10202,10113
3354,8799,10196,10200,9236,10199,10203,10201,9237
3355,10098,10111,10200,10196,10117,10202,10203,10197
3356,3457,3526,10204,10205,3529,10206,10207,10208
3357,1841,8544,10204,3526,8547,10209,10206,3527
3358,8551,10205,10204,8544,10210,10207,10209,8552
3359,10211,10212,10213,10214,10215,10216,10217,10218
3360,10219,10220,10213,10212,10221,10222,10216,10223
3361,3457,10214,10213,10220,10224,10217,10222,10225
3362,8551,10226,10227,10205,10228,10229,10230,10210
3363,10211,10214,10227,10226,10218,10231,10229,10232
3364,3457,10205,10227,10214,10208,10230,10231,10224
3365,8981,10233,10234,8982,10235,10236,10237,8985
3366,10238,10239,10234,10233,10240,10241,10236,10242
3367,8989,8982,10234,10239,8993,10237,10241,10243
3368,10244,10245,10246,10247,10248,10249,10250,10251
3369,10238,10252,10246,10245,10253,10254,10249,10255
3370,10256,10247,10246,10252,10257,10250,10254,10258
3371,10259,10260,10261,10262,10263,10264,10265,10266
3372,10267,10268,10261,10260,10269,10270,10264,10271
3373,10272,10262,10261,10268,10273,10265,10270,10274
3374,3435,4357,10275,10276,4363,10277,10278,10279
3375,4351,10280,10275,4357,10281,10282,10277,4359
3376,10283,10276,10275,10280,10284,10278,10282,10285
3377,10272,10286,10287,10288,10289,10290,10291,10292
3378,10293,10294,10287,10286,10295,10296,10290,10297
3379,10298,10288,10287,10294,10299,10291,10296,10300
3380,3498,3501,10301,10302,3505,10303,10304,10305
3381,3435,10306,10301,3501,10307,10308,10303,3508
3382,10309,10302,10301,10306,10310,10304,10308,10311
3383,10293,10286,10312,10313,10297,10314,10315,10316
3384,10272,10317,10312,10286,10318,10319,10314,10289
3385,10320,10313,10312,10317,10321,10315,10319,10322
3386,8554,10323,10324,8555,10325,10326,10327,8558
3387,10293,10328,10324,10323,10329,10330,10326,10331
3388,8562,8555,10324,10328,8566,10327,10330,10332
3389,8583,10333,10334,8573,10335,10336,10337,8584
3390,10338,10339,10334,10333,10340,10341,10336,10342
3391,8570,8573,10334,10339,8577,10337,10341,10343
3392,10256,10344,10345,10247,10346,10347,10348,10257
3393,10349,10350,10345,10344,10351,10352,10347,10353
3394,10244,10247,10345,10350,10251,10348,10352,10354
3395,8989,10355,10356,9185,10357,10358,10359,9194
3396,10244,10360,10356,10355,10361,10362,10358,10363
3397,8897,9185,10356,10360,9189,10359,10362,10364
3398,8693,8689,10365,10366,8695,10367,10368,10369
3399,8688,10370,10365,8689,10371,10372,10367,8690
3400,10373,10366,10365,10370,10374,10368,10372,10375
3401,10309,10306,10376,10377,10311,10378,10379,10380
3402,3435,10276,10376,10306,10279,10381,10378,10307
3403,10283,10377,10376,10276,10382,10379,10381,10284
3404,8631,8704,10383,10384,8707,10385,10386,10387
3405,8642,10388,10383,8704,10389,10390,10385,8709
3406,10391,10384,10383,10388,10392,10386,10390,10393
3407,8642,8716,10394,10395,8720,10396,10397,10398
3408,8715,10399,10394,8716,10400,10401,10396,8717
3409,10402,10395,10394,10399,10403,10397,10401,10404
3410,10373,10405,10406,10407,10408,10409,10410,10411
3411,10412,10413,10406,10405,10414,10415,10409,10416
3412,10417,10407,10406,10413,10418,10410,10415,10419
3413,10420,10421,10422,10423,10424,10425,10426,10427
3414,10428,10429,10422,10421,10430,10431,10425,10432
3415,10433,10423,10422,10429,10434,10426,10431,10435
3416,10402,10399,10436,10437,10404,10438,10439,10440
3417,8715,10441,10436,10399,10442,10443,10438,10400
3418,10444,10437,10436,10441,10445,10439,10443,10446
3419,10391,10388,10447,10448,10393,10449,10450,10451
3420,8642,10395,10447,10388,10398,10452,10449,10389
3421,10402,10448,10447,10395,10453,10450,10452,10403
3422,6910,10454,10455,8721,10456,10457,10458,8723
3423,10444,10441,10455,10454,10446,10459,10457,10460
3424,8715,8721,10455,10441,8727,10458,10459,10442
3425,8989,10239,10461,10355,10243,10462,10463,10357
3426,10238,10245,10461,10239,10255,10464,10462,10240
3427,10244,10355,10461,10245,10363,10463,10464,10248
3428,8761,10465,10466,8752,10467,10468,10469,8762
3429,10470,10471,10466,10465,10472,10473,10468,10474
3430,8749,8752,10466,10471,8756,10469,10473,10475
3431,10476,10477,10478,10479,10480,10481,10482,10483
3432,10470,10484,10478,10477,10485,10486,10481,10487
3433,10488,10479,10478,10484,10489,10482,10486,10490
3434,9829,9998,10491,10492,10002,10493,10494,10495
3435,9217,10496,10491,9998,10497,10498,10493,10008
3436,10499,10492,10491,10496,10500,10494,10498,10501
3437,10502,10503,10504,10505,10506,10507,10508,10509
3438,10510,10511,10504,10503,10512,10513,10507,10514
3439,10515,10505,10504,10511,10516,10508,10513,10517
3440,8775,8778,10518,10519,8782,10520,10521,10522
3441,8788,10523,10518,8778,10524,10525,10520,8789
3442,10526,10519,10518,10523,10527,10521,10525,10528
3443,10373,10370,10529,10530,10375,10531,10532,10533
3444,8688,10534,10529,10370,10535,10536,10531,10371
3445,10537,10530,10529,10534,10538,10532,10536,10539
3446,9591,10540,10541,10046,10542,10543,10544,10048
3447,10537,10534,10541,10540,10539,10545,10543,10546
3448,8688,10046,10541,10534,10054,10544,10545,10535
3449,10373,10530,10547,10405,10533,10548,10549,10408
3450,10537,10550,10547,10530,10551,10552,10548,10538
3451,10412,10405,10547,10550,10416,10549,10552,10553
3452,10554,10555,10556,10557,10558,10559,10560,10561
3453,10562,10563,10556,10555,10564,10565,10559,10566
3454,10567,10557,10556,10563,10568,10560,10565,10569
3455,10554,10557,10570,10571,10561,10572,10573,10574
3456,10567,10575,10570,10557,10576,10577,10572,10568
3457,10499,10571,10570,10575,10578,10573,10577,10579
3458,10349,10580,10581,10582,10583,10584,10585,10586
3459,10587,10588,10581,10580,10589,10590,10584,10591
3460,10592,10582,10581,10588,10593,10585,10590,10594
3461,10244,10350,10595,10596,10354,10597,10598,10599
3462,10349,10582,10595,10350,10586,10600,10597,10351
3463,10592,10596,10595,10582,10601,10598,10600,10593
3464,10338,10333,10602,10603,10342,10604,10605,10606
3465,8583,10607,10602,10333,10608,10609,10604,10335
3466,10592,10603,10602,10607,10610,10605,10609,10611
3467,10256,10612,10613,10344,10614,10615,10616,10346
3468,10617,10618,10613,10612,10619,10620,10615,10621
3469,10349,10344,10613,10618,10353,10616,10620,10622
3470,10433,10623,10624,10625,10626,10627,10628,10629
3471,10630,10631,10624,10623,10632,10633,10627,10634
3472,10635,10625,10624,10631,10636,10628,10633,10637
3473,10349,10638,10639,10640,10641,10642,10643,10644
3474,10630,10645,10639,10638,10646,10647,10642,10648
3475,10428,10640,10639,10645,10649,10643,10647,10650
3476,10433,10429,10651,10623,10435,10652,10653,10626
3477,10428,10645,10651,10429,10650,10654,10652,10430
3478,10630,10623,10651,10645,10634,10653,10654,10646
3479,10428,10655,10656,10657,10658,10659,10660,10661
3480,10283,10662,10656,10655,10663,10664,10659,10665
3481,10666,10657,10656,10662,10667,10660,10664,10668
3482,10211,10669,10670,10671,10672,10673,10674,10675
3483,10338,10676,10670,10669,10677,10678,10673,10679
3484,10666,10671,10670,10676,10680,10674,10678,10681
3485,8978,10682,10683,8969,10684,10685,10686,8979
3486,10687,10688,10683,10682,10689,10690,10685,10691
3487,8966,8969,10683,10688,8973,10686,10690,10692
3488,10693,10694,10695,10696,10697,10698,10699,10700
3489,10687,10701,10695,10694,10702,10703,10698,10704
3490,10705,10696,10695,10701,10706,10699,10703,10707
3491,10708,10709,10710,10711,10712,10713,10714,10715
3492,10716,10717,10710,10709,10718,10719,10713,10720
3493,10721,10711,10710,10717,10722,10714,10719,10723
3494,10238,10724,10725,10726,10727,10728,10729,10730
3495,10731,10732,10725,10724,10733,10734,10728,10735
3496,10320,10726,10725,10732,10736,10729,10734,10737
3497,10293,10313,10738,10739,10316,10740,10741,10742
3498,10320,10732,10738,10313,10737,10743,10740,10321
3499,10731,10739,10738,10732,10744,10741,10743,10733
3500,10238,10233,10745,10724,10242,10746,10747,10727
3501,8981,10748,10745,10233,10749,10750,10746,10235
3502,10731,10724,10745,10748,10735,10747,10750,10751
3503,10721,10752,10753,10754,10755,10756,10757,10758
3504,10759,10760,10753,10752,10761,10762,10756,10763
3505,10764,10754,10753,10760,10765,10757,10762,10766
3506,10708,10711,10767,10768,10715,10769,10770,10771
3507,10721,10754,10767,10711,10758,10772,10769,10722
3508,10764,10768,10767,10754,10773,10770,10772,10765
3509,10320,10317,10774,10775,10322,10776,10777,10778
3510,10272,10779,10774,10317,10780,10781,10776,10318
3511,10764,10775,10774,10779,10782,10777,10781,10783
3512,8693,10784,10785,9101,10786,10787,10788,9104
3513,10789,10790,10785,10784,10791,10792,10787,10793
3514,9098,9101,10785,10790,9109,10788,10792,10794
3515,10795,10796,10797,10798,10799,10800,10801,10802
3516,9098,10790,10797,10796,10794,10803,10800,10804
3517,10789,10798,10797,10790,10805,10801,10803,10791
3518,8693,10366,10806,10784,10369,10807,10808,10786
3519,10373,10809,10806,10366,10810,10811,10807,10374
3520,10789,10784,10806,10809,10793,10808,10811,10812
3521,10795,10813,10814,10815,10816,10817,10818,10819
3522,10820,10821,10814,10813,10822,10823,10817,10824
3523,10825,10815,10814,10821,10826,10818,10823,10827
3524,10417,10828,10829,10830,10831,10832,10833,10834
3525,10825,10821,10829,10828,10827,10835,10832,10836
3526,10820,10830,10829,10821,10837,10833,10835,10822
3527,10417,10830,10838,10407,10834,10839,10840,10418
3528,10820,10841,10838,10830,10842,10843,10839,10837
3529,10373,10407,10838,10841,10411,10840,10843,10844
3530,10272,10268,10845,10779,10274,10846,10847,10780
3531,10267,10848,10845,10268,10849,10850,10846,10269
3532,10764,10779,10845,10848,10783,10847,10850,10851
3533,10708,10768,10852,10853,10771,10854,10855,10856
3534,10764,10848,10852,10768,10851,10857,10854,10773
3535,10267,10853,10852,10848,10858,10855,10857,10849
3536,10293,10739,10859,10328,10742,10860,10861,10329
3537,10731,10862,10859,10739,10863,10864,10860,10744
3538,8562,10328,10859,10862,10332,10861,10864,10865
3539,8981,9126,10866,10748,9129,10867,10868,10749
3540,8562,10862,10866,9126,10865,10869,10867,9131
3541,10731,10748,10866,10862,10751,10868,10869,10863
3542,10244,10870,10871,10360,10872,10873,10874,10361
3543,10875,10876,10871,10870,10877,10878,10873,10879
3544,8897,10360,10871,10876,10364,10874,10878,10880
3545,8583,8887,10881,10882,8891,10883,10884,10885
3546,8897,10876,10881,8887,10880,10886,10883,8898
3547,10875,10882,10881,10876,10887,10884,10886,10877
3548,10244,10596,10888,10870,10599,10889,10890,10872
3549,10592,10891,10888,10596,10892,10893,10889,10601
3550,10875,10870,10888,10891,10879,10890,10893,10894
3551,8583,10882,10895,10607,10885,10896,10897,10608
3552,10875,10891,10895,10882,10894,10898,10896,10887
3553,10592,10607,10895,10891,10611,10897,10898,10892
3554,9829,10492,10899,10900,10495,10901,10902,10903
3555,10499,10904,10899,10492,10905,10906,10901,10500
3556,10907,10900,10899,10904,10908,10902,10906,10909
3557,10635,10910,10911,10912,10913,10914,10915,10916
3558,10617,10917,10911,10910,10918,10919,10914,10920
3559,10716,10912,10911,10917,10921,10915,10919,10922
3560,8554,9837,10923,10924,9840,10925,10926,10927
3561,9829,10900,10923,9837,10903,10928,10925,9842
3562,10907,10924,10923,10900,10929,10926,10928,10908
3563,10298,10294,10930,10931,10300,10932,10933,10934
3564,10293,10935,10930,10294,10936,10937,10932,10295
3565,10907,10931,10930,10935,10938,10933,10937,10939
3566,8554,10924,10940,10323,10927,10941,10942,10325
3567,10907,10935,10940,10924,10939,10943,10941,10929
3568,10293,10323,10940,10935,10331,10942,10943,10936
3569,10944,10945,10946,10947,10948,10949,10950,10951
3570,10562,10952,10946,10945,10953,10954,10949,10955
3571,10502,10947,10946,10952,10956,10950,10954,10957
3572,8775,10519,10958,10959,10522,10960,10961,10962
3573,10526,10963,10958,10519,10964,10965,10960,10527
3574,10966,10959,10958,10963,10967,10961,10965,10968
3575,8631,10969,10970,9272,10971,10972,10973,9277
3576,10974,10975,10970,10969,10976,10977,10972,10978
3577,9253,9272,10970,10975,9275,10973,10977,10979
3578,10980,10981,10982,10983,10984,10985,10986,10987
3579,9253,10975,10982,10981,10979,10988,10985,10989
3580,10974,10983,10982,10975,10990,10986,10988,10976
3581,8631,10384,10991,10969,10387,10992,10993,10971
3582,10391,10994,10991,10384,10995,10996,10992,10392
3583,10974,10969,10991,10994,10978,10993,10996,10997
3584,10980,10983,10998,10999,10987,11000,11001,11002
3585,10974,10994,10998,10983,10997,11003,11000,10990
3586,10391,10999,10998,10994,11004,11001,11003,10995
3587,10795,11005,11006,11007,11008,11009,11010,11011
3588,11012,11013,11006,11005,11014,11015,11009,11016
3589,11017,11007,11006,11013,11018,11010,11015,11019
3590,9307,9310,11020,11021,9314,11022,11023,11024
3591,9098,11025,11020,9310,11026,11027,11022,9320
3592,11017,11021,11020,11025,11028,11023,11027,11029
3593,10795,11007,11030,10796,11011,11031,11032,10799
3594,11017,11025,11030,11007,11029,11033,11031,11018
3595,9098,10796,11030,11025,10804,11032,11033,11026
3596,11034,11035,11036,11037,11038,11039,11040,11041
3597,11042,11043,11036,11035,11044,11045,11039,11046
3598,10825,11037,11036,11043,11047,11040,11045,11048
3599,10795,10815,11049,11050,10819,11051,11052,11053
3600,10825,11043,11049,10815,11048,11054,11051,10826
3601,11042,11050,11049,11043,11055,11052,11054,11044
3602,10795,11050,11056,11005,11053,11057,11058,11008
3603,11042,11059,11056,11050,11060,11061,11057,11055
3604,11012,11005,11056,11059,11016,11058,11061,11062
3605,10499,11063,11064,10571,11065,11066,11067,10578
3606,11068,11069,11064,11063,11070,11071,11066,11072
3607,10554,10571,11064,11069,10574,11067,11071,11073
3608,4351,11074,11075,10280,11076,11077,11078,10281
3609,10219,11079,11075,11074,11080,11081,11077,11082
3610,10283,10280,11075,11079,10285,11078,11081,11083
3611,4351,4346,11084,11074,4355,11085,11086,11076
3612,3470,11087,11084,4346,11088,11089,11085,4348
3613,10219,11074,11084,11087,11082,11086,11089,11090
3614,3470,3465,11091,11087,3474,11092,11093,11088
3615,3457,10220,11091,3465,10225,11094,11092,3467
3616,10219,11087,11091,10220,11090,11093,11094,10221
3617,11034,11095,11096,11097,11098,11099,11100,11101
3618,10515,11102,11096,11095,11103,11104,11099,11105
3619,11106,11097,11096,11102,11107,11100,11104,11108
3620,11012,11059,11109,11110,11062,11111,11112,11113
3621,11042,11114,11109,11059,11115,11116,11111,11060
3622,11106,11110,11109,11114,11117,11112,11116,11118
3623,11034,11097,11119,11035,11101,11120,11121,11038
3624,11106,11114,11119,11097,11118,11122,11120,11107
3625,11042,11035,11119,11114,11046,11121,11122,11115
3626,9307,11123,11124,9368,11125,11126,11127,9371
3627,10526,10523,11124,11123,10528,11128,11126,11129
3628,8788,9368,11124,10523,9378,11127,11128,10524
3629,9307,11021,11130,11123,11024,11131,11132,11125
3630,11017,11133,11130,11021,11134,11135,11131,11028
3631,10526,11123,11130,11133,11129,11132,11135,11136
3632,11012,11137,11138,11013,11139,11140,11141,11014
3633,10526,11133,11138,11137,11136,11142,11140,11143
3634,11017,11013,11138,11133,11019,11141,11142,11134
3635,10373,11144,11145,10809,11146,11147,11148,10810
3636,11149,11150,11145,11144,11151,11152,11147,11153
3637,10789,10809,11145,11150,10812,11148,11152,11154
3638,10795,10798,11155,11156,10802,11157,11158,11159
3639,10789,11150,11155,10798,11154,11160,11157,10805
3640,11149,11156,11155,11150,11161,11158,11160,11151
3641,10373,10841,11162,11144,10844,11163,11164,11146
3642,10820,11165,11162,10841,11166,11167,11163,10842
3643,11149,11144,11162,11165,11153,11164,11167,11168
3644,10795,11156,11169,10813,11159,11170,11171,10816
3645,11149,11165,11169,11156,11168,11172,11170,11161
3646,10820,10813,11169,11165,10824,11171,11172,11166
3647,10298,10931,11173,11174,10934,11175,11176,11177
3648,10907,11178,11173,10931,11179,11180,11175,10938
3649,10567,11174,11173,11178,11181,11176,11180,11182
3650,10499,10575,11183,10904,10579,11184,11185,10905
3651,10567,11178,11183,10575,11182,11186,11184,10576
3652,10907,10904,11183,11178,10909,11185,11186,11179
3653,10320,11187,11188,10726,11189,11190,11191,10736
3654,10759,11192,11188,11187,11193,11194,11190,11195
3655,10238,10726,11188,11192,10730,11191,11194,11196
3656,10256,10252,11197,11198,10258,11199,11200,11201
3657,10238,11192,11197,10252,11196,11202,11199,10253
3658,10759,11198,11197,11192,11203,11200,11202,11193
3659,10320,10775,11204,11187,10778,11205,11206,11189
3660,10764,10760,11204,10775,10766,11207,11205,10782
3661,10759,11187,11204,10760,11195,11206,11207,10761
3662,10256,11198,11208,11209,11201,11210,11211,11212
3663,10759,10752,11208,11198,10763,11213,11210,11203
3664,10721,11209,11208,10752,11214,11211,11213,10755
3665,10966,11215,11216,11217,11218,11219,11220,11221
3666,10510,11222,11216,11215,11223,11224,11219,11225
3667,10554,11217,11216,11222,11226,11220,11224,11227
3668,10428,11228,11229,10640,11230,11231,11232,10649
3669,10587,10580,11229,11228,10591,11233,11231,11234
3670,10349,10640,11229,10580,10644,11232,11233,10583
3671,10338,10603,11235,11236,10606,11237,11238,11239
3672,10592,10588,11235,10603,10594,11240,11237,10610
3673,10587,11236,11235,10588,11241,11238,11240,10589
3674,10428,10657,11242,11228,10661,11243,11244,11230
3675,10666,11245,11242,10657,11246,11247,11243,10667
3676,10587,11228,11242,11245,11234,11244,11247,11248
3677,10338,11236,11249,10676,11239,11250,11251,10677
3678,10587,11245,11249,11236,11248,11252,11250,11241
3679,10666,10676,11249,11245,10681,11251,11252,11246
3680,8570,11253,11254,10165,11255,11256,11257,10167
3681,11258,11259,11254,11253,11260,11261,11256,11262
3682,8551,10165,11254,11259,10173,11257,11261,11263
3683,10211,10226,11264,11265,10232,11266,11267,11268
3684,8551,11259,11264,10226,11263,11269,11266,10228
3685,11258,11265,11264,11259,11270,11267,11269,11260
3686,8570,10339,11271,11253,10343,11272,11273,11255
3687,10338,11274,11271,10339,11275,11276,11272,10340
3688,11258,11253,11271,11274,11262,11273,11276,11277
3689,10211,11265,11278,10669,11268,11279,11280,10672
3690,11258,11274,11278,11265,11277,11281,11279,11270
3691,10338,10669,11278,11274,10679,11280,11281,11275
3692,9591,11282,11283,10540,11284,11285,11286,10542
3693,11287,11288,11283,11282,11289,11290,11285,11291
3694,10537,10540,11283,11288,10546,11286,11290,11292
3695,9591,9594,11293,11282,9598,11294,11295,11284
3696,8749,11296,11293,9594,11297,11298,11294,9601
3697,11287,11282,11293,11296,11291,11295,11298,11299
3698,10470,11300,11301,10471,11302,11303,11304,10472
3699,11287,11296,11301,11300,11299,11305,11303,11306
3700,8749,10471,11301,11296,10475,11304,11305,11297
3701,10470,10477,11307,11308,10487,11309,11310,11311
3702,10476,11312,11307,10477,11313,11314,11309,10480
3703,11315,11308,11307,11312,11316,11310,11314,11317
3704,11318,11319,11320,11321,11322,11323,11324,11325
3705,11315,11312,11320,11319,11317,11326,11323,11327
3706,10476,11321,11320,11312,11328,11324,11326,11313
3707,10470,11308,11329,11330,11311,11331,11332,11333
3708,11315,11334,11329,11308,11335,11336,11331,11316
3709,11337,11330,11329,11334,11338,11332,11336,11339
3710,11315,11319,11340,11334,11327,11341,11342,11335
3711,11318,11343,11340,11319,11344,11345,11341,11322
3712,11337,11334,11340,11343,11339,11342,11345,11346
3713,11347,11348,11349,11350,11351,11352,11353,11354
3714,11355,11356,11349,11348,11357,11358,11352,11359
3715,11360,11350,11349,11356,11361,11353,11358,11362
3716,9620,11363,11364,9658,11365,11366,11367,9661
3717,11368,11369,11364,11363,11370,11371,11366,11372
3718,9665,9658,11364,11369,9669,11367,11371,11373
3719,11374,11375,11376,11377,11378,11379,11380,11381
3720,9665,11369,11376,11375,11373,11382,11379,11383
3721,11368,11377,11376,11369,11384,11380,11382,11370
3722,11347,11385,11386,11387,11388,11389,11390,11391
3723,11392,11393,11386,11385,11394,11395,11389,11396
3724,11368,11387,11386,11393,11397,11390,11395,11398
3725,11374,11377,11399,11400,11381,11401,11402,11403
3726,11368,11393,11399,11377,11398,11404,11401,11384
3727,11392,11400,11399,11393,11405,11402,11404,11394
3728,10537,11288,11406,11407,11292,11408,11409,11410
3729,11287,11411,11406,11288,11412,11413,11408,11289
3730,11337,11407,11406,11411,11414,11409,11413,11415
3731,10470,11330,11416,11300,11333,11417,11418,11302
3732,11337,11411,11416,11330,11415,11419,11417,11338
3733,11287,11300,11416,11411,11306,11418,11419,11412
3734,9253,11420,11421,9896,11422,11423,11424,9898
3735,11425,11426,11421,11420,11427,11428,11423,11429
3736,9730,9896,11421,11426,9902,11424,11428,11430
3737,10687,11431,11432,11433,11434,11435,11436,11437
3738,11425,11438,11432,11431,11439,11440,11435,11441
3739,11442,11433,11432,11438,11443,11436,11440,11444
3740,11442,11445,11446,11447,11448,11449,11450,11451
3741,11452,11453,11446,11445,11454,11455,11449,11456
3742,11457,11447,11446,11453,11458,11450,11455,11459
3743,10687,11460,11461,10688,11462,11463,11464,10689
3744,11465,11466,11461,11460,11467,11468,11463,11469
3745,8966,10688,11461,11466,10692,11464,11468,11470
3746,9633,9781,11471,11472,9785,11473,11474,11475
3747,8966,11466,11471,9781,11470,11476,11473,9791
3748,11465,11472,11471,11466,11477,11474,11476,11467
3749,10470,10465,11478,11479,10474,11480,11481,11482
3750,8761,11483,11478,10465,11484,11485,11480,10467
3751,11374,11479,11478,11483,11486,11481,11485,11487
3752,9665,11375,11488,9765,11383,11489,11490,9767
3753,11374,11483,11488,11375,11487,11491,11489,11378
3754,8761,9765,11488,11483,9773,11490,11491,11484
3755,11392,11492,11493,11400,11494,11495,11496,11405
3756,10488,11497,11493,11492,11498,11499,11495,11500
3757,11374,11400,11493,11497,11403,11496,11499,11501
3758,10470,11479,11502,10484,11482,11503,11504,10485
3759,11374,11497,11502,11479,11501,11505,11503,11486
3760,10488,10484,11502,11497,10490,11504,11505,11498
3761,11360,11506,11507,11508,11509,11510,11511,11512
3762,11513,11514,11507,11506,11515,11516,11510,11517
3763,10693,11508,11507,11514,11518,11511,11516,11519
3764,10562,11520,11521,10952,11522,11523,11524,10953
3765,10510,10503,11521,11520,10514,11525,11523,11526
3766,10502,10952,11521,10503,10957,11524,11525,10506
3767,11106,11102,11527,11528,11108,11529,11530,11531
3768,10515,10511,11527,11102,10517,11532,11529,11103
3769,10510,11528,11527,10511,11533,11530,11532,10512
3770,10562,10555,11534,11520,10566,11535,11536,11522
3771,10554,11222,11534,10555,11227,11537,11535,10558
3772,10510,11520,11534,11222,11526,11536,11537,11223
3773,10259,10262,11538,11539,10266,11540,11541,11542
3774,10272,11543,11538,10262,11544,11545,11540,10273
3775,11546,11539,11538,11543,11547,11541,11545,11548
3776,10567,11549,11550,11551,11552,11553,11554,11555
3777,11556,11557,11550,11549,11558,11559,11553,11560
3778,11546,11551,11550,11557,11561,11554,11559,11562
3779,10259,11539,11563,11564,11542,11565,11566,11567
3780,11546,11557,11563,11539,11562,11568,11565,11547
3781,11556,11564,11563,11557,11569,11566,11568,11558
3782,10567,11551,11570,11174,11555,11571,11572,11181
3783,11546,11573,11570,11551,11574,11575,11571,11561
3784,10298,11174,11570,11573,11177,11572,11575,11576
3785,10272,10288,11577,11543,10292,11578,11579,11544
3786,10298,11573,11577,10288,11576,11580,11578,10299
3787,11546,11543,11577,11573,11548,11579,11580,11574
3788,9217,11581,11582,10496,11583,11584,11585,10497
3789,11068,11063,11582,11581,11072,11586,11584,11587
3790,10499,10496,11582,11063,10501,11585,11586,11065
3791,10966,11217,11588,11589,11221,11590,11591,11592
3792,10554,11069,11588,11217,11073,11593,11590,11226
3793,11068,11589,11588,11069,11594,11591,11593,11070
3794,9217,9220,11595,11581,9224,11596,11597,11583
3795,8775,11598,11595,9220,11599,11600,11596,9229
3796,11068,11581,11595,11598,11587,11597,11600,11601
3797,10966,11589,11602,10959,11592,11603,11604,10967
3798,11068,11598,11602,11589,11601,11605,11603,11594
3799,8775,10959,11602,11598,10962,11604,11605,11599
3800,10980,11606,11607,10981,11608,11609,11610,10984
3801,11452,11611,11607,11606,11612,11613,11609,11614
3802,9253,10981,11607,11611,10989,11610,11613,11615
3803,11425,11420,11616,11617,11429,11618,11619,11620
3804,9253,11611,11616,11420,11615,11621,11618,11422
3805,11452,11617,11616,11611,11622,11619,11621,11612
3806,10980,11623,11624,11606,11625,11626,11627,11608
3807,11457,11453,11624,11623,11459,11628,11626,11629
3808,11452,11606,11624,11453,11614,11627,11628,11454
3809,11425,11617,11630,11438,11620,11631,11632,11439
3810,11452,11445,11630,11617,11456,11633,11631,11622
3811,11442,11438,11630,11445,11444,11632,11633,11448
3812,11368,11634,11635,11636,11637,11638,11639,11640
3813,11641,11642,11635,11634,11643,11644,11638,11645
3814,11646,11636,11635,11642,11647,11639,11644,11648
3815,9633,11649,11650,11651,11652,11653,11654,11655
3816,11646,11642,11650,11649,11648,11656,11653,11657
3817,11641,11651,11650,11642,11658,11654,11656,11643
3818,11368,11363,11659,11634,11372,11660,11661,11637
3819,9620,11662,11659,11363,11663,11664,11660,11365
3820,11641,11634,11659,11662,11645,11661,11664,11665
3821,9620,9623,11666,11662,9627,11667,11668,11663
3822,9633,11651,11666,9623,11655,11669,11667,9634
3823,11641,11662,11666,11651,11665,11668,11669,11658
3824,11646,11670,11671,11672,11673,11674,11675,11676
3825,11465,11677,11671,11670,11678,11679,11674,11680
3826,11513,11672,11671,11677,11681,11675,11679,11682
3827,11646,11649,11683,11670,11657,11684,11685,11673
3828,9633,11472,11683,11649,11475,11686,11684,11652
3829,11465,11670,11683,11472,11680,11685,11686,11477
3830,11368,11687,11688,11387,11689,11690,11691,11397
3831,11355,11348,11688,11687,11359,11692,11690,11693
3832,11347,11387,11688,11348,11391,11691,11692,11351
3833,11513,11506,11694,11695,11517,11696,11697,11698
3834,11360,11356,11694,11506,11362,11699,11696,11509
3835,11355,11695,11694,11356,11700,11697,11699,11357
3836,11368,11636,11701,11687,11640,11702,11703,11689
3837,11646,11704,11701,11636,11705,11706,11702,11647
3838,11355,11687,11701,11704,11693,11703,11706,11707
3839,11513,11695,11708,11672,11698,11709,11710,11681
3840,11355,11704,11708,11695,11707,11711,11709,11700
3841,11646,11672,11708,11704,11676,11710,11711,11705
3842,11513,11677,11712,11514,11682,11713,11714,11515
3843,11465,11715,11712,11677,11716,11717,11713,11678
3844,10693,11514,11712,11715,11519,11714,11717,11718
3845,10687,10694,11719,11460,10704,11720,11721,11462
3846,10693,11715,11719,10694,11718,11722,11720,10697
3847,11465,11460,11719,11715,11469,11721,11722,11716
3848,11556,11723,11724,11725,11726,11727,11728,11729
3849,11730,11731,11724,11723,11732,11733,11727,11734
3850,10944,11725,11724,11731,11735,11728,11733,11736
3851,10562,10945,11737,11738,10955,11739,11740,11741
3852,10944,11731,11737,10945,11736,11742,11739,10948
3853,11730,11738,11737,11731,11743,11740,11742,11732
3854,11556,11549,11744,11723,11560,11745,11746,11726
3855,10567,11747,11744,11549,11748,11749,11745,11552
3856,11730,11723,11744,11747,11734,11746,11749,11750
3857,10562,11738,11751,10563,11741,11752,11753,10564
3858,11730,11747,11751,11738,11750,11754,11752,11743
3859,10567,10563,11751,11747,10569,11753,11754,11748
3860,11318,11755,11756,11343,11757,11758,11759,11344
3861,11760,11761,11756,11755,11762,11763,11758,11764
3862,11337,11343,11756,11761,11346,11759,11763,11765
3863,10537,11407,11766,11767,11410,11768,11769,11770
3864,11337,11761,11766,11407,11765,11771,11768,11414
3865,11760,11767,11766,11761,11772,11769,11771,11762
3866,11318,11773,11774,11755,11775,11776,11777,11757
3867,10412,11778,11774,11773,11779,11780,11776,11781
3868,11760,11755,11774,11778,11764,11777,11780,11782
3869,10537,11767,11783,10550,11770,11784,11785,10551
3870,11760,11778,11783,11767,11782,11786,11784,11772
3871,10412,10550,11783,11778,10553,11785,11786,11779
3872,10721,11787,11788,11209,11789,11790,11791,11214
3873,10617,10612,11788,11787,10621,11792,11790,11793
3874,10256,11209,11788,10612,11212,11791,11792,10614
3875,10630,10638,11794,11795,10648,11796,11797,11798
3876,10349,10618,11794,10638,10622,11799,11796,10641
3877,10617,11795,11794,10618,11800,11797,11799,10619
3878,10721,10717,11801,11787,10723,11802,11803,11789
3879,10716,10917,11801,10717,10922,11804,11802,10718
3880,10617,11787,11801,10917,11793,11803,11804,10918
3881,10630,11795,11805,10631,11798,11806,11807,10632
3882,10617,10910,11805,11795,10920,11808,11806,11800
3883,10635,10631,11805,10910,10637,11807,11808,10913
3884,10687,10682,11809,11431,10691,11810,11811,11434
3885,8978,11812,11809,10682,11813,11814,11810,10684
3886,11425,11431,11809,11812,11441,11811,11814,11815
3887,9730,11426,11816,10179,11430,11817,11818,10181
3888,11425,11812,11816,11426,11815,11819,11817,11427
3889,8978,10179,11816,11812,10187,11818,11819,11813
3890,11106,11820,11821,11110,11822,11823,11824,11117
3891,11825,11826,11821,11820,11827,11828,11823,11829
3892,11012,11110,11821,11826,11113,11824,11828,11830
3893,11106,11528,11831,11820,11531,11832,11833,11822
3894,10510,11834,11831,11528,11835,11836,11832,11533
3895,11825,11820,11831,11834,11829,11833,11836,11837
3896,10966,11838,11839,11215,11840,11841,11842,11218
3897,11825,11834,11839,11838,11837,11843,11841,11844
3898,10510,11215,11839,11834,11225,11842,11843,11835
3899,10211,11845,11846,10212,11847,11848,11849,10215
3900,11850,11851,11846,11845,11852,11853,11848,11854
3901,10219,10212,11846,11851,10223,11849,11853,11855
3902,10283,11079,11856,11857,11083,11858,11859,11860
3903,10219,11851,11856,11079,11855,11861,11858,11080
3904,11850,11857,11856,11851,11862,11859,11861,11852
3905,10211,10671,11863,11845,10675,11864,11865,11847
3906,10666,11866,11863,10671,11867,11868,11864,10680
3907,11850,11845,11863,11866,11854,11865,11868,11869
3908,10283,11857,11870,10662,11860,11871,11872,10663
3909,11850,11866,11870,11857,11869,11873,11871,11862
3910,10666,10662,11870,11866,10668,11872,11873,11867
3911,10420,11874,11875,10421,11876,11877,11878,10424
3912,11879,11880,11875,11874,11881,11882,11877,11883
3913,10428,10421,11875,11880,10432,11878,11882,11884
3914,10283,10655,11885,11886,10665,11887,11888,11889
3915,10428,11880,11885,10655,11884,11890,11887,10658
3916,11879,11886,11885,11880,11891,11888,11890,11881
3917,10420,11892,11893,11874,11894,11895,11896,11876
3918,10309,11897,11893,11892,11898,11899,11895,11900
3919,11879,11874,11893,11897,11883,11896,11899,11901
3920,10283,11886,11902,10377,11889,11903,11904,10382
3921,11879,11897,11902,11886,11901,11905,11903,11891
3922,10309,10377,11902,11897,10380,11904,11905,11898
3923,11457,11906,11907,11447,11908,11909,11910,11458
3924,10705,11911,11907,11906,11912,11913,11909,11914
3925,11442,11447,11907,11911,11451,11910,11913,11915
3926,10687,11433,11916,10701,11437,11917,11918,10702
3927,11442,11911,11916,11433,11915,11919,11917,11443
3928,10705,10701,11916,11911,10707,11918,11919,11912
3929,11012,11826,11920,11137,11830,11921,11922,11139
3930,11825,11923,11920,11826,11924,11925,11921,11827
3931,10526,11137,11920,11923,11143,11922,11925,11926
3932,10966,10963,11927,11838,10968,11928,11929,11840
3933,10526,11923,11927,10963,11926,11930,11928,10964
3934,11825,11838,11927,11923,11844,11929,11930,11924
3935,5116,5170,11931,11932,5173,11933,11934,11935
3936,3498,10302,11931,5170,10305,11936,11933,5171
3937,10309,11932,11931,10302,11937,11934,11936,10310
3938,11938,11939,11940,11941,11942,11943,11944,11945
3939,11946,11947,11940,11939,11948,11949,11943,11950
3940,5116,11941,11940,11947,11951,11944,11949,11952
3941,10309,11953,11954,11932,11955,11956,11957,11937
3942,11938,11941,11954,11953,11945,11958,11956,11959
3943,5116,11932,11954,11941,11935,11957,11958,11951
3944,10708,11960,11961,10709,11962,11963,11964,10712
3945,11965,11966,11961,11960,11967,11968,11963,11969
3946,10716,10709,11961,11966,10720,11964,11968,11970
3947,11971,11972,11973,11974,11975,11976,11977,11978
3948,11965,11979,11973,11972,11980,11981,11976,11982
3949,11983,11974,11973,11979,11984,11977,11981,11985
3950,6764,6767,11986,11987,6771,11988,11989,11990
3951,6776,11991,11986,6767,11992,11993,11988,6777
3952,11994,11987,11986,11991,11995,11989,11993,11996
3953,5083,5937,11997,11998,5943,11999,12000,12001
3954,5931,12002,11997,5937,12003,12004,11999,5939
3955,12005,11998,11997,12002,12006,12000,12004,12007
3956,11994,12008,12009,12010,12011,12012,12013,12014
3957,12015,12016,12009,12008,12017,12018,12012,12019
3958,12020,12010,12009,12016,12021,12013,12018,12022
3959,127,5147,12023,6635,5150,12024,12025,6636
3960,5083,12026,12023,5147,12027,12028,12024,5152
3961,6638,6635,12023,12026,6640,12025,12028,12029
3962,12015,12008,12030,12031,12019,12032,12033,12034
3963,11994,12035,12030,12008,12036,12037,12032,12011
3964,12038,12031,12030,12035,12039,12033,12037,12040
3965,10259,12041,12042,10260,12043,12044,12045,10263
3966,12015,12046,12042,12041,12047,12048,12044,12049
3967,10267,10260,12042,12046,10271,12045,12048,12050
3968,10433,12051,12052,10423,12053,12054,12055,10434
3969,12056,12057,12052,12051,12058,12059,12054,12060
3970,10420,10423,12052,12057,10427,12055,12059,12061
3971,10716,11966,12062,12063,11970,12064,12065,12066
3972,11965,11972,12062,11966,11982,12067,12064,11967
3973,11971,12063,12062,11972,12068,12065,12067,11975
3974,11983,12069,12070,11974,12071,12072,12073,11984
3975,12074,12075,12070,12069,12076,12077,12072,12078
3976,11971,11974,12070,12075,11978,12073,12077,12079
3977,10716,12063,12080,10912,12066,12081,12082,10921
3978,11971,12083,12080,12063,12084,12085,12081,12068
3979,10635,10912,12080,12083,10916,12082,12085,12086
3980,10417,10413,12087,12088,10419,12089,12090,12091
3981,10412,12092,12087,10413,12093,12094,12089,10414
3982,12095,12088,12087,12092,12096,12090,12094,12097
3983,10391,10448,12098,12099,10451,12100,12101,12102
3984,10402,12103,12098,10448,12104,12105,12100,10453
3985,6845,12099,12098,12103,12106,12101,12105,12107
3986,6761,12108,12109,6751,12110,12111,12112,6762
3987,12113,12114,12109,12108,12115,12116,12111,12117
3988,6748,6751,12109,12114,6755,12112,12116,12118
3989,10402,10437,12119,12120,10440,12121,12122,12123
3990,10444,12124,12119,10437,12125,12126,12121,10445
3991,6832,12120,12119,12124,12127,12122,12126,12128
3992,12095,12129,12130,12131,12132,12133,12134,12135
3993,6824,6817,12130,12129,6828,12136,12133,12137
3994,6816,12131,12130,6817,12138,12134,12136,6820
3995,6638,12026,12139,12140,12029,12141,12142,12143
3996,5083,11998,12139,12026,12001,12144,12141,12027
3997,12005,12140,12139,11998,12145,12142,12144,12006
3998,10444,12146,12147,12124,12148,12149,12150,12125
3999,6848,6851,12147,12146,6855,12151,12149,12152
4000,6832,12124,12147,6851,12128,12150,12151,6861
4001,10402,12120,12153,12103,12123,12154,12155,12104
4002,6832,6835,12153,12120,6839,12156,12154,12127
4003,6845,12103,12153,6835,12107,12155,12156,6846
4004,6910,6913,12157,10454,6917,12158,12159,10456
4005,6848,12146,12157,6913,12152,12160,12158,6920
4006,10444,10454,12157,12146,10460,12159,12160,12148
4007,10488,12161,12162,10479,12163,12164,12165,10489
4008,12166,12167,12162,12161,12168,12169,12164,12170
4009,10476,10479,12162,12167,10483,12165,12169,12171
4010,6945,12172,12173,6935,12174,12175,12176,6946
4011,12166,12177,12173,12172,12178,12179,12175,12180
4012,6932,6935,12173,12177,6939,12176,12179,12181
4013,11556,11725,12182,12183,11729,12184,12185,12186
4014,10944,12187,12182,11725,12188,12189,12184,11735
4015,12190,12183,12182,12187,12191,12185,12189,12192
4016,6995,12193,12194,6996,12195,12196,12197,6999
4017,12198,12199,12194,12193,12200,12201,12196,12202
4018,7003,6996,12194,12199,7007,12197,12201,12203
4019,10502,10505,12204,12205,10509,12206,12207,12208
4020,10515,12209,12204,10505,12210,12211,12206,10516
4021,12212,12205,12204,12209,12213,12207,12211,12214
4022,12095,12092,12215,12216,12097,12217,12218,12219
4023,10412,12220,12215,12092,12221,12222,12217,12093
4024,12223,12216,12215,12220,12224,12218,12222,12225
4025,11318,12226,12227,11773,12228,12229,12230,11775
4026,12223,12220,12227,12226,12225,12231,12229,12232
4027,10412,11773,12227,12220,11781,12230,12231,12221
4028,12095,12216,12233,12129,12219,12234,12235,12132
4029,12223,12236,12233,12216,12237,12238,12234,12224
4030,6824,12129,12233,12236,12137,12235,12238,12239
4031,12240,12241,12242,12243,12244,12245,12246,12247
4032,12248,12249,12242,12241,12250,12251,12245,12252
4033,12253,12243,12242,12249,12254,12246,12251,12255
4034,12240,12243,12256,12257,12247,12258,12259,12260
4035,12253,12261,12256,12243,12262,12263,12258,12254
4036,12190,12257,12256,12261,12264,12259,12263,12265
4037,12074,12266,12267,12268,12269,12270,12271,12272
4038,12273,12274,12267,12266,12275,12276,12270,12277
4039,12278,12268,12267,12274,12279,12271,12276,12280
4040,11971,12075,12281,12282,12079,12283,12284,12285
4041,12074,12268,12281,12075,12272,12286,12283,12076
4042,12278,12282,12281,12268,12287,12284,12286,12279
4043,12056,12051,12288,12289,12060,12290,12291,12292
4044,10433,12293,12288,12051,12294,12295,12290,12053
4045,12278,12289,12288,12293,12296,12291,12295,12297
4046,11983,12298,12299,12069,12300,12301,12302,12071
4047,12303,12304,12299,12298,12305,12306,12301,12307
4048,12074,12069,12299,12304,12078,12302,12306,12308
4049,6748,12309,12310,7379,12311,12312,12313,7382
4050,12314,12315,12310,12309,12316,12317,12312,12318
4051,6929,7379,12310,12315,7387,12313,12317,12319
4052,12074,12320,12321,12322,12323,12324,12325,12326
4053,12314,12327,12321,12320,12328,12329,12324,12330
4054,12113,12322,12321,12327,12331,12325,12329,12332
4055,6748,12114,12333,12309,12118,12334,12335,12311
4056,12113,12327,12333,12114,12332,12336,12334,12115
4057,12314,12309,12333,12327,12318,12335,12336,12328
4058,12113,12337,12338,12339,12340,12341,12342,12343
4059,12005,12344,12338,12337,12345,12346,12341,12347
4060,12348,12339,12338,12344,12349,12342,12346,12350
4061,11938,12351,12352,12353,12354,12355,12356,12357
4062,12056,12358,12352,12351,12359,12360,12355,12361
4063,12348,12353,12352,12358,12362,12356,12360,12363
4064,10705,12364,12365,10696,12366,12367,12368,10706
4065,12369,12370,12365,12364,12371,12372,12367,12373
4066,10693,10696,12365,12370,10700,12368,12372,12374
4067,7181,12375,12376,7171,12377,12378,12379,7182
4068,12369,12380,12376,12375,12381,12382,12378,12383
4069,7168,7171,12376,12380,7175,12379,12382,12384
4070,6663,6666,12385,12386,6670,12387,12388,12389
4071,6676,12390,12385,6666,12391,12392,12387,6677
4072,12393,12386,12385,12390,12394,12388,12392,12395
4073,11965,12396,12397,12398,12399,12400,12401,12402
4074,12403,12404,12397,12396,12405,12406,12400,12407
4075,12038,12398,12397,12404,12408,12401,12406,12409
4076,12015,12031,12410,12411,12034,12412,12413,12414
4077,12038,12404,12410,12031,12409,12415,12412,12039
4078,12403,12411,12410,12404,12416,12413,12415,12405
4079,11965,11960,12417,12396,11969,12418,12419,12399
4080,10708,12420,12417,11960,12421,12422,12418,11962
4081,12403,12396,12417,12420,12407,12419,12422,12423
4082,12393,12424,12425,12426,12427,12428,12429,12430
4083,12431,12432,12425,12424,12433,12434,12428,12435
4084,12436,12426,12425,12432,12437,12429,12434,12438
4085,6663,12386,12439,12440,12389,12441,12442,12443
4086,12393,12426,12439,12386,12430,12444,12441,12394
4087,12436,12440,12439,12426,12445,12442,12444,12437
4088,12038,12035,12446,12447,12040,12448,12449,12450
4089,11994,12451,12446,12035,12452,12453,12448,12036
4090,12436,12447,12446,12451,12454,12449,12453,12455
4091,10417,12456,12457,10828,12458,12459,12460,10831
4092,12461,12462,12457,12456,12463,12464,12459,12465
4093,10825,10828,12457,12462,10836,12460,12464,12466
4094,12467,12468,12469,12470,12471,12472,12473,12474
4095,10825,12462,12469,12468,12466,12475,12472,12476
4096,12461,12470,12469,12462,12477,12473,12475,12463
4097,10417,12088,12478,12456,12091,12479,12480,12458
4098,12095,12481,12478,12088,12482,12483,12479,12096
4099,12461,12456,12478,12481,12465,12480,12483,12484
4100,6816,12485,12486,12131,12487,12488,12489,12138
4101,12490,12491,12486,12485,12492,12493,12488,12494
4102,12095,12131,12486,12491,12135,12489,12493,12495
4103,6816,7277,12496,12485,7281,12497,12498,12487
4104,7287,12499,12496,7277,12500,12501,12497,7288
4105,12490,12485,12496,12499,12494,12498,12501,12502
4106,12467,12503,12504,12505,12506,12507,12508,12509
4107,12490,12499,12504,12503,12502,12510,12507,12511
4108,7287,12505,12504,12499,12512,12508,12510,12500
4109,11994,11991,12513,12451,11996,12514,12515,12452
4110,6776,12516,12513,11991,12517,12518,12514,11992
4111,12436,12451,12513,12516,12455,12515,12518,12519
4112,6663,12440,12520,7361,12443,12521,12522,7363
4113,12436,12516,12520,12440,12519,12523,12521,12445
4114,6776,7361,12520,12516,7367,12522,12523,12517
4115,12015,12411,12524,12046,12414,12525,12526,12047
4116,12403,12527,12524,12411,12528,12529,12525,12416
4117,10267,12046,12524,12527,12050,12526,12529,12530
4118,10708,10853,12531,12420,10856,12532,12533,12421
4119,10267,12527,12531,10853,12530,12534,12532,10858
4120,12403,12420,12531,12527,12423,12533,12534,12528
4121,11971,12535,12536,12083,12537,12538,12539,12084
4122,12540,12541,12536,12535,12542,12543,12538,12544
4123,10635,12083,12536,12541,12086,12539,12543,12545
4124,10433,10625,12546,12547,10629,12548,12549,12550
4125,10635,12541,12546,10625,12545,12551,12548,10636
4126,12540,12547,12546,12541,12552,12549,12551,12542
4127,11971,12282,12553,12535,12285,12554,12555,12537
4128,12278,12556,12553,12282,12557,12558,12554,12287
4129,12540,12535,12553,12556,12544,12555,12558,12559
4130,10433,12547,12560,12293,12550,12561,12562,12294
4131,12540,12556,12560,12547,12559,12563,12561,12552
4132,12278,12293,12560,12556,12297,12562,12563,12557
4133,11556,12183,12564,12565,12186,12566,12567,12568
4134,12190,12569,12564,12183,12570,12571,12566,12191
4135,12572,12565,12564,12569,12573,12567,12571,12574
4136,6929,12575,12576,6922,12577,12578,12579,6930
4137,12303,12580,12576,12575,12581,12582,12578,12583
4138,6676,6922,12576,12580,6925,12579,12582,12584
4139,10259,11564,12585,12586,11567,12587,12588,12589
4140,11556,12565,12585,11564,12568,12590,12587,11569
4141,12572,12586,12585,12565,12591,12588,12590,12573
4142,12020,12016,12592,12593,12022,12594,12595,12596
4143,12015,12597,12592,12016,12598,12599,12594,12017
4144,12572,12593,12592,12597,12600,12595,12599,12601
4145,10259,12586,12602,12041,12589,12603,12604,12043
4146,12572,12597,12602,12586,12601,12605,12603,12591
4147,12015,12041,12602,12597,12049,12604,12605,12598
4148,6971,12606,12607,8132,12608,12609,12610,8134
4149,12248,12611,12607,12606,12612,12613,12609,12614
4150,6995,8132,12607,12611,8140,12610,12613,12615
4151,10502,12205,12616,12617,12208,12618,12619,12620
4152,12212,12621,12616,12205,12622,12623,12618,12213
4153,12624,12617,12616,12621,12625,12619,12623,12626
4154,10391,12627,12628,10999,12629,12630,12631,11004
4155,12632,12633,12628,12627,12634,12635,12630,12636
4156,10980,10999,12628,12633,11002,12631,12635,12637
4157,7485,12638,12639,12640,12641,12642,12643,12644
4158,10980,12633,12639,12638,12637,12645,12642,12646
4159,12632,12640,12639,12633,12647,12643,12645,12634
4160,10391,12099,12648,12627,12102,12649,12650,12629
4161,6845,12651,12648,12099,12652,12653,12649,12106
4162,12632,12627,12648,12651,12636,12650,12653,12654
4163,7485,12640,12655,7475,12644,12656,12657,7486
4164,12632,12651,12655,12640,12654,12658,12656,12647
4165,6845,7475,12655,12651,7479,12657,12658,12652
4166,12467,12659,12660,12468,12661,12662,12663,12471
4167,12664,12665,12660,12659,12666,12667,12662,12668
4168,10825,12468,12660,12665,12476,12663,12667,12669
4169,11034,11037,12670,12671,11041,12672,12673,12674
4170,10825,12665,12670,11037,12669,12675,12672,11047
4171,12664,12671,12670,12665,12676,12673,12675,12666
4172,12467,12677,12678,12659,12679,12680,12681,12661
4173,12682,12683,12678,12677,12684,12685,12680,12686
4174,12664,12659,12678,12683,12668,12681,12685,12687
4175,7528,12688,12689,7529,12690,12691,12692,7532
4176,12693,12694,12689,12688,12695,12696,12691,12697
4177,7287,7529,12689,12694,7539,12692,12696,12698
4178,12467,12505,12699,12700,12509,12701,12702,12703
4179,7287,12694,12699,12505,12698,12704,12701,12512
4180,12693,12700,12699,12694,12705,12702,12704,12695
4181,12467,12700,12706,12677,12703,12707,12708,12679
4182,12693,12709,12706,12700,12710,12711,12707,12705
4183,12682,12677,12706,12709,12686,12708,12711,12712
4184,12190,12713,12714,12257,12715,12716,12717,12264
4185,12718,12719,12714,12713,12720,12721,12716,12722
4186,12240,12257,12714,12719,12260,12717,12721,12723
4187,5931,12724,12725,12002,12726,12727,12728,12003
4188,11946,12729,12725,12724,12730,12731,12727,12732
4189,12005,12002,12725,12729,12007,12728,12731,12733
4190,5931,5926,12734,12724,5935,12735,12736,12726
4191,5129,12737,12734,5926,12738,12739,12735,5928
4192,11946,12724,12734,12737,12732,12736,12739,12740
4193,5129,5124,12741,12737,5133,12742,12743,12738
4194,5116,11947,12741,5124,11952,12744,12742,5126
4195,11946,12737,12741,11947,12740,12743,12744,11948
4196,7528,7653,12745,12746,7656,12747,12748,12749
4197,7003,12750,12745,7653,12751,12752,12747,7658
4198,12753,12746,12745,12750,12754,12748,12752,12755
4199,12682,12709,12756,12757,12712,12758,12759,12760
4200,12693,12761,12756,12709,12762,12763,12758,12710
4201,12753,12757,12756,12761,12764,12759,12763,12765
4202,7528,12746,12766,12688,12749,12767,12768,12690
4203,12753,12761,12766,12746,12765,12769,12767,12754
4204,12693,12688,12766,12761,12697,12768,12769,12762
4205,11034,12770,12771,11095,12772,12773,12774,11098
4206,12212,12209,12771,12770,12214,12775,12773,12776
4207,10515,11095,12771,12209,11105,12774,12775,12210
4208,11034,12671,12777,12770,12674,12778,12779,12772
4209,12664,12780,12777,12671,12781,12782,12778,12676
4210,12212,12770,12777,12780,12776,12779,12782,12783
4211,12682,12784,12785,12683,12786,12787,12788,12684
4212,12212,12780,12785,12784,12783,12789,12787,12790
4213,12664,12683,12785,12780,12687,12788,12789,12781
4214,12095,12791,12792,12481,12793,12794,12795,12482
4215,12796,12797,12792,12791,12798,12799,12794,12800
4216,12461,12481,12792,12797,12484,12795,12799,12801
4217,12467,12470,12802,12803,12474,12804,12805,12806
4218,12461,12797,12802,12470,12801,12807,12804,12477
4219,12796,12803,12802,12797,12808,12805,12807,12798
4220,12095,12491,12809,12791,12495,12810,12811,12793
4221,12490,12812,12809,12491,12813,12814,12810,12492
4222,12796,12791,12809,12812,12800,12811,12814,12815
4223,12467,12803,12816,12503,12806,12817,12818,12506
4224,12796,12812,12816,12803,12815,12819,12817,12808
4225,12490,12503,12816,12812,12511,12818,12819,12813
4226,12020,12593,12820,12821,12596,12822,12823,12824
4227,12572,12825,12820,12593,12826,12827,12822,12600
4228,12253,12821,12820,12825,12828,12823,12827,12829
4229,12190,12261,12830,12569,12265,12831,12832,12570
4230,12253,12825,12830,12261,12829,12833,12831,12262
4231,12572,12569,12830,12825,12574,12832,12833,12826
4232,11983,12834,12835,12836,12837,12838,12839,12840
4233,12431,12424,12835,12834,12435,12841,12838,12842
4234,12393,12836,12835,12424,12843,12839,12841,12427
4235,12038,12447,12844,12845,12450,12846,12847,12848
4236,12436,12432,12844,12447,12438,12849,12846,12454
4237,12431,12845,12844,12432,12850,12847,12849,12433
4238,11983,11979,12851,12834,11985,12852,12853,12837
4239,11965,12854,12851,11979,12855,12856,12852,11980
4240,12431,12834,12851,12854,12842,12853,12856,12857
4241,12038,12845,12858,12398,12848,12859,12860,12408
4242,12431,12854,12858,12845,12857,12861,12859,12850
4243,11965,12398,12858,12854,12402,12860,12861,12855
4244,12624,12862,12863,12864,12865,12866,12867,12868
4245,12198,12869,12863,12862,12870,12871,12866,12872
4246,12240,12864,12863,12869,12873,12867,12871,12874
4247,12113,12875,12876,12322,12877,12878,12879,12331
4248,12273,12266,12876,12875,12277,12880,12878,12881
4249,12074,12322,12876,12266,12326,12879,12880,12269
4250,12056,12289,12882,12883,12292,12884,12885,12886
4251,12278,12274,12882,12289,12280,12887,12884,12296
4252,12273,12883,12882,12274,12888,12885,12887,12275
4253,12113,12339,12889,12875,12343,12890,12891,12877
4254,12348,12892,12889,12339,12893,12894,12890,12349
4255,12273,12875,12889,12892,12881,12891,12894,12895
4256,12056,12883,12896,12358,12886,12897,12898,12359
4257,12273,12892,12896,12883,12895,12899,12897,12888
4258,12348,12358,12896,12892,12363,12898,12899,12893
4259,10420,12900,12901,11892,12902,12903,12904,11894
4260,12905,12906,12901,12900,12907,12908,12903,12909
4261,10309,11892,12901,12906,11900,12904,12908,12910
4262,11938,11953,12911,12912,11959,12913,12914,12915
4263,10309,12906,12911,11953,12910,12916,12913,11955
4264,12905,12912,12911,12906,12917,12914,12916,12907
4265,10420,12057,12918,12900,12061,12919,12920,12902
4266,12056,12921,12918,12057,12922,12923,12919,12058
4267,12905,12900,12918,12921,12909,12920,12923,12924
4268,11938,12912,12925,12351,12915,12926,12927,12354
4269,12905,12921,12925,12912,12924,12928,12926,12917
4270,12056,12351,12925,12921,12361,12927,12928,12922
4271,11318,12929,12930,12226,12931,12932,12933,12228
4272,12934,12935,12930,12929,12936,12937,12932,12938
4273,12223,12226,12930,12935,12232,12933,12937,12939
4274,11318,11321,12940,12929,11325,12941,12942,12931
4275,10476,12943,12940,11321,12944,12945,12941,11328
4276,12934,12929,12940,12943,12938,12942,12945,12946
4277,12166,12947,12948,12167,12949,12950,12951,12168
4278,12934,12943,12948,12947,12946,12952,12950,12953
4279,10476,12167,12948,12943,12171,12951,12952,12944
4280,12166,12172,12954,12955,12180,12956,12957,12958
4281,6945,12959,12954,12172,12960,12961,12956,12174
4282,12962,12955,12954,12959,12963,12957,12961,12964
4283,7022,12965,12966,7811,12967,12968,12969,7813
4284,12962,12959,12966,12965,12964,12970,12968,12971
4285,6945,7811,12966,12959,7819,12969,12970,12960
4286,12166,12955,12972,12973,12958,12974,12975,12976
4287,12962,12977,12972,12955,12978,12979,12974,12963
4288,12980,12973,12972,12977,12981,12975,12979,12982
4289,12962,12965,12983,12977,12971,12984,12985,12978
4290,7022,12986,12983,12965,12987,12988,12984,12967
4291,12980,12977,12983,12986,12982,12985,12988,12989
4292,7884,12990,12991,8206,12992,12993,12994,8208
4293,12995,12996,12991,12990,12997,12998,12993,12999
4294,8001,8206,12991,12996,8212,12994,12998,13000
4295,11347,13001,13002,11385,13003,13004,13005,11388
4296,13006,13007,13002,13001,13008,13009,13004,13010
4297,11392,11385,13002,13007,11396,13005,13009,13011
4298,13012,13013,13014,13015,13016,13017,13018,13019
4299,11392,13007,13014,13013,13011,13020,13017,13021
4300,13006,13015,13014,13007,13022,13018,13020,13008
4301,7884,7887,13023,13024,7891,13025,13026,13027
4302,7897,13028,13023,7887,13029,13030,13025,7898
4303,13006,13024,13023,13028,13031,13026,13030,13032
4304,13012,13015,13033,13034,13019,13035,13036,13037
4305,13006,13028,13033,13015,13032,13038,13035,13022
4306,7897,13034,13033,13028,13039,13036,13038,13029
4307,12223,12935,13040,13041,12939,13042,13043,13044
4308,12934,13045,13040,12935,13046,13047,13042,12936
4309,12980,13041,13040,13045,13048,13043,13047,13049
4310,12166,12973,13050,12947,12976,13051,13052,12949
4311,12980,13045,13050,12973,13049,13053,13051,12981
4312,12934,12947,13050,13045,12953,13052,13053,13046
4313,10980,13054,13055,11623,13056,13057,13058,11625
4314,13059,13060,13055,13054,13061,13062,13057,13063
4315,11457,11623,13055,13060,11629,13058,13062,13064
4316,12369,13065,13066,13067,13068,13069,13070,13071
4317,13059,13072,13066,13065,13073,13074,13069,13075
4318,13076,13067,13066,13072,13077,13070,13074,13078
4319,13076,13079,13080,13081,13082,13083,13084,13085
4320,13086,13087,13080,13079,13088,13089,13083,13090
4321,7958,13081,13080,13087,13091,13084,13089,13092
4322,12369,13093,13094,12370,13095,13096,13097,12371
4323,13098,13099,13094,13093,13100,13101,13096,13102
4324,10693,12370,13094,13099,12374,13097,13101,13103
4325,11360,11508,13104,13105,11512,13106,13107,13108
4326,10693,13099,13104,11508,13103,13109,13106,11518
4327,13098,13105,13104,13099,13110,13107,13109,13100
4328,12166,12161,13111,13112,12170,13113,13114,13115
4329,10488,13116,13111,12161,13117,13118,13113,12163
4330,13012,13112,13111,13116,13119,13114,13118,13120
4331,11392,13013,13121,11492,13021,13122,13123,11494
4332,13012,13116,13121,13013,13120,13124,13122,13016
4333,10488,11492,13121,13116,11500,13123,13124,13117
4334,7897,8023,13125,13034,8026,13126,13127,13039
4335,6932,13128,13125,8023,13129,13130,13126,8028
4336,13012,13034,13125,13128,13037,13127,13130,13131
4337,12166,13112,13132,12177,13115,13133,13134,12178
4338,13012,13128,13132,13112,13131,13135,13133,13119
4339,6932,12177,13132,13128,12181,13134,13135,13129
4340,8001,13136,13137,8002,13138,13139,13140,8005
4341,13141,13142,13137,13136,13143,13144,13139,13145
4342,7181,8002,13137,13142,8010,13140,13144,13146
4343,12248,13147,13148,12611,13149,13150,13151,12612
4344,12198,12193,13148,13147,12202,13152,13150,13153
4345,6995,12611,13148,12193,12615,13151,13152,12195
4346,12753,12750,13154,13155,12755,13156,13157,13158
4347,7003,12199,13154,12750,12203,13159,13156,12751
4348,12198,13155,13154,12199,13160,13157,13159,12200
4349,12248,12241,13161,13147,12252,13162,13163,13149
4350,12240,12869,13161,12241,12874,13164,13162,12244
4351,12198,13147,13161,12869,13153,13163,13164,12870
4352,6764,11987,13165,13166,11990,13167,13168,13169
4353,11994,13170,13165,11987,13171,13172,13167,11995
4354,13173,13166,13165,13170,13174,13168,13172,13175
4355,12253,13176,13177,13178,13179,13180,13181,13182
4356,6963,13183,13177,13176,13184,13185,13180,13186
4357,13173,13178,13177,13183,13187,13181,13185,13188
4358,6764,13166,13189,7441,13169,13190,13191,7443
4359,13173,13183,13189,13166,13188,13192,13190,13174
4360,6963,7441,13189,13183,7447,13191,13192,13184
4361,12253,13178,13193,12821,13182,13194,13195,12828
4362,13173,13196,13193,13178,13197,13198,13194,13187
4363,12020,12821,13193,13196,12824,13195,13198,13199
4364,11994,12010,13200,13170,12014,13201,13202,13171
4365,12020,13196,13200,12010,13199,13203,13201,12021
4366,13173,13170,13200,13196,13175,13202,13203,13197
4367,10944,13204,13205,12187,13206,13207,13208,12188
4368,12718,12713,13205,13204,12722,13209,13207,13210
4369,12190,12187,13205,12713,12192,13208,13209,12715
4370,12624,12864,13211,13212,12868,13213,13214,13215
4371,12240,12719,13211,12864,12723,13216,13213,12873
4372,12718,13212,13211,12719,13217,13214,13216,12720
4373,10944,10947,13218,13204,10951,13219,13220,13206
4374,10502,13221,13218,10947,13222,13223,13219,10956
4375,12718,13204,13218,13221,13210,13220,13223,13224
4376,12624,13212,13225,12617,13215,13226,13227,12625
4377,12718,13221,13225,13212,13224,13228,13226,13217
4378,10502,12617,13225,13221,12620,13227,13228,13222
4379,7485,13229,13230,12638,13231,13232,13233,12641
4380,13086,13234,13230,13229,13235,13236,13232,13237
4381,10980,12638,13230,13234,12646,13233,13236,13238
4382,13059,13054,13239,13240,13063,13241,13242,13243
4383,10980,13234,13239,13054,13238,13244,13241,13056
4384,13086,13240,13239,13234,13245,13242,13244,13235
4385,7485,7948,13246,13229,7952,13247,13248,13231
4386,7958,13087,13246,7948,13092,13249,13247,7959
4387,13086,13229,13246,13087,13237,13248,13249,13088
4388,13059,13240,13250,13072,13243,13251,13252,13073
4389,13086,13079,13250,13240,13090,13253,13251,13245
4390,13076,13072,13250,13079,13078,13252,13253,13082
4391,13006,13254,13255,13256,13257,13258,13259,13260
4392,13261,13262,13255,13254,13263,13264,13258,13265
4393,13266,13256,13255,13262,13267,13259,13264,13268
4394,11360,13269,13270,13271,13272,13273,13274,13275
4395,13266,13262,13270,13269,13268,13276,13273,13277
4396,13261,13271,13270,13262,13278,13274,13276,13263
4397,13006,13001,13279,13254,13010,13280,13281,13257
4398,11347,13282,13279,13001,13283,13284,13280,13003
4399,13261,13254,13279,13282,13265,13281,13284,13285
4400,11347,11350,13286,13282,11354,13287,13288,13283
4401,11360,13271,13286,11350,13275,13289,13287,11361
4402,13261,13282,13286,13271,13285,13288,13289,13278
4403,13266,13290,13291,13292,13293,13294,13295,13296
4404,13098,13297,13291,13290,13298,13299,13294,13300
4405,13141,13292,13291,13297,13301,13295,13299,13302
4406,13266,13269,13303,13290,13277,13304,13305,13293
4407,11360,13105,13303,13269,13108,13306,13304,13272
4408,13098,13290,13303,13105,13300,13305,13306,13110
4409,13006,13307,13308,13024,13309,13310,13311,13031
4410,12995,12990,13308,13307,12999,13312,13310,13313
4411,7884,13024,13308,12990,13027,13311,13312,12992
4412,13141,13136,13314,13315,13145,13316,13317,13318
4413,8001,12996,13314,13136,13000,13319,13316,13138
4414,12995,13315,13314,12996,13320,13317,13319,12997
4415,13006,13256,13321,13307,13260,13322,13323,13309
4416,13266,13324,13321,13256,13325,13326,13322,13267
4417,12995,13307,13321,13324,13313,13323,13326,13327
4418,13141,13315,13328,13292,13318,13329,13330,13301
4419,12995,13324,13328,13315,13327,13331,13329,13320
4420,13266,13292,13328,13324,13296,13330,13331,13325
4421,13141,13297,13332,13142,13302,13333,13334,13143
4422,13098,13335,13332,13297,13336,13337,13333,13298
4423,7181,13142,13332,13335,13146,13334,13337,13338
4424,12369,12375,13339,13093,12383,13340,13341,13095
4425,7181,13335,13339,12375,13338,13342,13340,12377
4426,13098,13093,13339,13335,13102,13341,13342,13336
4427,6963,13343,13344,6964,13345,13346,13347,6967
4428,13348,13349,13344,13343,13350,13351,13346,13352
4429,6971,6964,13344,13349,6975,13347,13351,13353
4430,12248,12606,13354,13355,12614,13356,13357,13358
4431,6971,13349,13354,12606,13353,13359,13356,12608
4432,13348,13355,13354,13349,13360,13357,13359,13350
4433,6963,13176,13361,13343,13186,13362,13363,13345
4434,12253,13364,13361,13176,13365,13366,13362,13179
4435,13348,13343,13361,13364,13352,13363,13366,13367
4436,12248,13355,13368,12249,13358,13369,13370,12250
4437,13348,13364,13368,13355,13367,13371,13369,13360
4438,12253,12249,13368,13364,12255,13370,13371,13365
4439,7022,13372,13373,12986,13374,13375,13376,12987
4440,13377,13378,13373,13372,13379,13380,13375,13381
4441,12980,12986,13373,13378,12989,13376,13380,13382
4442,12223,13041,13383,13384,13044,13385,13386,13387
4443,12980,13378,13383,13041,13382,13388,13385,13048
4444,13377,13384,13383,13378,13389,13386,13388,13379
4445,7022,7025,13390,13372,7029,13391,13392,13374
4446,6824,13393,13390,7025,13394,13395,13391,7032
4447,13377,13372,13390,13393,13381,13392,13395,13396
4448,12223,13384,13397,12236,13387,13398,13399,12237
4449,13377,13393,13397,13384,13396,13400,13398,13389
4450,6824,12236,13397,13393,12239,13399,13400,13394
4451,12393,13401,13402,12836,13403,13404,13405,12843
4452,12303,12298,13402,13401,12307,13406,13404,13407
4453,11983,12836,13402,12298,12840,13405,13406,12300
4454,12314,12320,13408,13409,12330,13410,13411,13412
4455,12074,12304,13408,12320,12308,13413,13410,12323
4456,12303,13409,13408,12304,13414,13411,13413,12305
4457,12393,12390,13415,13401,12395,13416,13417,13403
4458,6676,12580,13415,12390,12584,13418,13416,12391
4459,12303,13401,13415,12580,13407,13417,13418,12581
4460,12314,13409,13419,12315,13412,13420,13421,12316
4461,12303,12575,13419,13409,12583,13422,13420,13414
4462,6929,12315,13419,12575,12319,13421,13422,12577
4463,12369,12364,13423,13065,12373,13424,13425,13068
4464,10705,13426,13423,12364,13427,13428,13424,12366
4465,13059,13065,13423,13426,13075,13425,13428,13429
4466,11457,13060,13430,11906,13064,13431,13432,11908
4467,13059,13426,13430,13060,13429,13433,13431,13061
4468,10705,11906,13430,13426,11914,13432,13433,13427
4469,12753,13434,13435,12757,13436,13437,13438,12764
4470,13439,13440,13435,13434,13441,13442,13437,13443
4471,12682,12757,13435,13440,12760,13438,13442,13444
4472,12753,13155,13445,13434,13158,13446,13447,13436
4473,12198,13448,13445,13155,13449,13450,13446,13160
4474,13439,13434,13445,13448,13443,13447,13450,13451
4475,12624,13452,13453,12862,13454,13455,13456,12865
4476,13439,13448,13453,13452,13451,13457,13455,13458
4477,12198,12862,13453,13448,12872,13456,13457,13449
4478,11938,13459,13460,11939,13461,13462,13463,11942
4479,13464,13465,13460,13459,13466,13467,13462,13468
4480,11946,11939,13460,13465,11950,13463,13467,13469
4481,12005,12729,13470,13471,12733,13472,13473,13474
4482,11946,13465,13470,12729,13469,13475,13472,12730
4483,13464,13471,13470,13465,13476,13473,13475,13466
4484,11938,12353,13477,13459,12357,13478,13479,13461
4485,12348,13480,13477,12353,13481,13482,13478,12362
4486,13464,13459,13477,13480,13468,13479,13482,13483
4487,12005,13471,13484,12344,13474,13485,13486,12345
4488,13464,13480,13484,13471,13483,13487,13485,13476
4489,12348,12344,13484,13480,12350,13486,13487,13481
4490,6761,13488,13489,12108,13490,13491,13492,12110
4491,13493,13494,13489,13488,13495,13496,13491,13497
4492,12113,12108,13489,13494,12117,13492,13496,13498
4493,12005,12337,13499,13500,12347,13501,13502,13503
4494,12113,13494,13499,12337,13498,13504,13501,12340
4495,13493,13500,13499,13494,13505,13502,13504,13495
4496,6761,7770,13506,13488,7774,13507,13508,13490
4497,6638,13509,13506,7770,13510,13511,13507,7780
4498,13493,13488,13506,13509,13497,13508,13511,13512
4499,12005,13500,13513,12140,13503,13514,13515,12145
4500,13493,13509,13513,13500,13512,13516,13514,13505
4501,6638,12140,13513,13509,12143,13515,13516,13510
4502,7958,8360,13517,13081,8363,13518,13519,13091
4503,7168,13520,13517,8360,13521,13522,13518,8365
4504,13076,13081,13517,13520,13085,13519,13522,13523
4505,12369,13067,13524,12380,13071,13525,13526,12381
4506,13076,13520,13524,13067,13523,13527,13525,13077
4507,7168,12380,13524,13520,12384,13526,13527,13521
4508,12682,13440,13528,12784,13444,13529,13530,12786
4509,13439,13531,13528,13440,13532,13533,13529,13441
4510,12212,12784,13528,13531,12790,13530,13533,13534
4511,12624,12621,13535,13452,12626,13536,13537,13454
4512,12212,13531,13535,12621,13534,13538,13536,12622
4513,13439,13452,13535,13531,13458,13537,13538,13532

** Properties PodGeom_Struct0

*SHELL SECTION, ELSET=ESkin_PodGeom_Struct0_0, MATERIAL=Aluminum_6061-T6, ORIENTATION=OSkin_PodGeom_Struct0_0
0.00833333

*ORIENTATION, NAME=OSkin_PodGeom_Struct0_0, SYSTEM=RECTANGULAR
1.000000,0.000000,0.000000,0.0,0.0,1.0


** Materials
*MATERIAL, NAME=Aluminum_6061-T6
*DENSITY
5.26338
*ELASTIC, TYPE=ISO
1.4256e+09, 0.33
*EXPANSION, TYPE=ISO
1.3e-05

